LAMMPS (2 Aug 2023)
OMP_NUM_THREADS environment is not set. Defaulting to 1 thread. (src/comm.cpp:98)
  using 1 OpenMP thread(s) per MPI task
# test input, created by automated python program

units	 real
atom_style	 full

pair_style lj/charmm/coul/charmm/implicit 8.0 10.0

bond_style harmonic

angle_style harmonic

boundary        p p p

read_data       myLNP.dat
Reading data file ...
  orthogonal box = (-200 -200 -200) to (200 200 200)
  1 by 1 by 1 MPI processor grid
  reading atoms ...
  14734 atoms
  scanning bonds ...
  1 = max bonds/atom
  scanning angles ...
  1 = max angles/atom
  reading bonds ...
  7156 bonds
  reading angles ...
  3578 angles
Finding 1-2 1-3 1-4 neighbors ...
  special bond factors lj:    0        0        0       
  special bond factors coul:  0        0        0       
     2 = max # of 1-2 neighbors
     1 = max # of 1-3 neighbors
     1 = max # of 1-4 neighbors
     2 = max # of special neighbors
  special bonds CPU = 0.002 seconds
  read_data CPU = 0.051 seconds

pair_coeff 1 1 1.00 10.0
pair_coeff 1 2 1.00 10.0
pair_coeff 2 3 1.00 10.0
pair_coeff 2 2 1.00 10.0
pair_coeff 3 3 1.00 10.0
pair_coeff 1 3 1.00 10.0

thermo_style custom step temp ebond epair pe ke etotal press
thermo          100
thermo_modify flush yes

dump            1 all dcd 20 cg_test.dcd
dump_modify     1 unwrap yes sort id
dump mydmp all atom 10 dump.min.lammpstrj

minimize 10.0 1.0e-4 1000 100000
Generated 0 of 3 mixed pair_coeff terms from arithmetic mixing rule
WARNING: Communication cutoff 12 is shorter than a bond length based estimate of 12.4988. This may lead to errors. (src/comm.cpp:723)
Neighbor list info ...
  update: every = 1 steps, delay = 0 steps, check = yes
  max neighbors/atom: 2000, page size: 100000
  master list distance cutoff = 12
  ghost atom cutoff = 12
  binsize = 6, bins = 67 67 67
  1 neighbor lists, perpetual/occasional/extra = 1 0 0
  (1) pair lj/charmm/coul/charmm/implicit, perpetual
      attributes: half, newton on
      pair build: half/bin/newton
      stencil: half/bin/3d
      bin: standard
WARNING: Communication cutoff 12 is shorter than a bond length based estimate of 12.4988. This may lead to errors. (src/comm.cpp:723)
Per MPI rank memory allocation (min/avg/max) = 9.895 | 9.895 | 9.895 Mbytes
   Step          Temp          E_bond         E_pair         PotEng         KinEng         TotEng         Press     
         0   0              0.057808353    2.4321538e+16  2.4321538e+16  0              2.4321538e+16  1.0423058e+14
         1   0              0.057801797    9.2844577e+15  9.2844577e+15  0              9.2844577e+15  3.9788785e+13
Loop time of 0.0116 on 1 procs for 1 steps with 14734 atoms

69.1% CPU use with 1 MPI tasks x 1 OpenMP threads

Minimization stats:
  Stopping criterion = energy tolerance
  Energy initial, next-to-last, final = 
    2.43215383358259e+16 2.43215383358259e+16 9.2844576891742e+15
  Force two-norm initial, final = 5.0570627e+17 1.4983103e+17
  Force max component initial, final = 2.4121492e+17 7.2885753e+16
  Final line search alpha, max atom move = 1.0364202e-19 0.0075540263
  Iterations, force evaluations = 1 3

MPI task timing breakdown:
Section |  min time  |  avg time  |  max time  |%varavg| %total
---------------------------------------------------------------
Pair    | 0.005618   | 0.005618   | 0.005618   |   0.0 | 48.43
Bond    | 0.00061314 | 0.00061314 | 0.00061314 |   0.0 |  5.29
Neigh   | 0          | 0          | 0          |   0.0 |  0.00
Comm    | 5.7e-07    | 5.7e-07    | 5.7e-07    |   0.0 |  0.00
Output  | 0          | 0          | 0          |   0.0 |  0.00
Modify  | 0          | 0          | 0          |   0.0 |  0.00
Other   |            | 0.005368   |            |       | 46.28

Nlocal:          14734 ave       14734 max       14734 min
Histogram: 1 0 0 0 0 0 0 0 0 0
Nghost:              0 ave           0 max           0 min
Histogram: 1 0 0 0 0 0 0 0 0 0
Neighs:         108608 ave      108608 max      108608 min
Histogram: 1 0 0 0 0 0 0 0 0 0

Total # of neighbors = 108608
Ave neighs/atom = 7.3712502
Ave special neighs/atom = 1.4570381
Neighbor list builds = 0
Dangerous builds = 0
minimize 0.0 1.0e-8 1000 100000
Generated 0 of 3 mixed pair_coeff terms from arithmetic mixing rule
WARNING: Communication cutoff 12 is shorter than a bond length based estimate of 12.4988. This may lead to errors. (src/comm.cpp:723)
Per MPI rank memory allocation (min/avg/max) = 12.3 | 12.3 | 12.3 Mbytes
   Step          Temp          E_bond         E_pair         PotEng         KinEng         TotEng         Press     
         1   0              0.057801797    9.2844577e+15  9.2844577e+15  0              9.2844577e+15  3.9788785e+13
       100   0              32042.389      15710448       15743056       0              15743056       70389.899    
       200   0              577504.12      2102528.6      2682258.9      0              2682258.9      10534.188    
       300   0              748177.27      697323.07      1449261.9      0              1449261.9      4001.9699    
       400   0              611098.26      509466.69      1125246.4      0              1125246.4      3030.355     
       500   0              486580.62      424088.06      915911.5       0              915911.5       2610.7623    
       600   0              370551.2       370409.75      746646.41      0              746646.41      2369.6048    
       700   0              263211.73      321869.15      590887.73      0              590887.73      2167.6972    
       800   0              165457.91      264873.83      436483.64      0              436483.64      1927.9328    
       900   0              81202.647      187985.66      276108.48      0              276108.48      1565.8417    
      1000   0              33132.424      112361.15      153862.92      0              153862.92      1144.8109    
      1001   0              32779.031      111647.29      152811.85      0              152811.85      1140.3247    
Loop time of 2.47487 on 1 procs for 1000 steps with 14734 atoms

98.8% CPU use with 1 MPI tasks x 1 OpenMP threads

Minimization stats:
  Stopping criterion = max iterations
  Energy initial, next-to-last, final = 
    9.2844576891742e+15   153862.915474835   152811.851820084
  Force two-norm initial, final = 1.4983103e+17 495.51134
  Force max component initial, final = 7.2885753e+16 23.920108
  Final line search alpha, max atom move = 0.0042613964 0.10193306
  Iterations, force evaluations = 1000 1005

MPI task timing breakdown:
Section |  min time  |  avg time  |  max time  |%varavg| %total
---------------------------------------------------------------
Pair    | 1.2292     | 1.2292     | 1.2292     |   0.0 | 49.67
Bond    | 0.15307    | 0.15307    | 0.15307    |   0.0 |  6.19
Neigh   | 0.43508    | 0.43508    | 0.43508    |   0.0 | 17.58
Comm    | 0.0064981  | 0.0064981  | 0.0064981  |   0.0 |  0.26
Output  | 0.48689    | 0.48689    | 0.48689    |   0.0 | 19.67
Modify  | 0          | 0          | 0          |   0.0 |  0.00
Other   |            | 0.1641     |            |       |  6.63

Nlocal:          14734 ave       14734 max       14734 min
Histogram: 1 0 0 0 0 0 0 0 0 0
Nghost:              0 ave           0 max           0 min
Histogram: 1 0 0 0 0 0 0 0 0 0
Neighs:          77584 ave       77584 max       77584 min
Histogram: 1 0 0 0 0 0 0 0 0 0

Total # of neighbors = 77584
Ave neighs/atom = 5.2656441
Ave special neighs/atom = 1.4570381
Neighbor list builds = 102
Dangerous builds = 0
minimize 1e-12 1.0e-10 1000 10000
Generated 0 of 3 mixed pair_coeff terms from arithmetic mixing rule
WARNING: Communication cutoff 12 is shorter than a bond length based estimate of 12.4988. This may lead to errors. (src/comm.cpp:723)
Per MPI rank memory allocation (min/avg/max) = 12.3 | 12.3 | 12.3 Mbytes
   Step          Temp          E_bond         E_pair         PotEng         KinEng         TotEng         Press     
      1001   0              32779.031      111647.29      152811.85      0              152811.85      1140.3247    
      1100   0              10288.072      57779.078      77311.366      0              77311.366      752.26248    
      1200   0              2858.1982      27277.215      38187.259      0              38187.259      452.08791    
      1300   0              915.44443      13298.71       20111.644      0              20111.644      272.34131    
      1400   0              290.29851      5910.4427      9596.6706      0              9596.6706      152.53364    
      1500   0              136.47525      3115.1126      4829.3965      0              4829.3965      96.026717    
      1600   0              56.797845      1637.1505      2307.6283      0              2307.6283      60.561691    
      1700   0              12.534203      622.0803       820.60334      0              820.60334      30.504445    
      1800   0              1.6805842      91.075811      112.87542      0              112.87542      7.8319473    
      1900   0              0.10507256     6.1103886      6.8643022      0              6.8643022      1.1748011    
      2000   0              0.0023108739   0.20634856     0.21940099     0              0.21940099     0.11478329   
      2001   0              0.0016626551   0.20174672     0.21416291     0              0.21416291     0.1120705    
Loop time of 2.04408 on 1 procs for 1000 steps with 14734 atoms

98.2% CPU use with 1 MPI tasks x 1 OpenMP threads

Minimization stats:
  Stopping criterion = max iterations
  Energy initial, next-to-last, final = 
      152811.851820084  0.219400993220359  0.214162908815987
  Force two-norm initial, final = 495.51134 0.40334212
  Force max component initial, final = 23.920108 0.092337174
  Final line search alpha, max atom move = 1 0.092337174
  Iterations, force evaluations = 1000 1195

MPI task timing breakdown:
Section |  min time  |  avg time  |  max time  |%varavg| %total
---------------------------------------------------------------
Pair    | 0.98734    | 0.98734    | 0.98734    |   0.0 | 48.30
Bond    | 0.18473    | 0.18473    | 0.18473    |   0.0 |  9.04
Neigh   | 0.21601    | 0.21601    | 0.21601    |   0.0 | 10.57
Comm    | 0.0039087  | 0.0039087  | 0.0039087  |   0.0 |  0.19
Output  | 0.48767    | 0.48767    | 0.48767    |   0.0 | 23.86
Modify  | 0          | 0          | 0          |   0.0 |  0.00
Other   |            | 0.1644     |            |       |  8.04

Nlocal:          14734 ave       14734 max       14734 min
Histogram: 1 0 0 0 0 0 0 0 0 0
Nghost:              0 ave           0 max           0 min
Histogram: 1 0 0 0 0 0 0 0 0 0
Neighs:          61718 ave       61718 max       61718 min
Histogram: 1 0 0 0 0 0 0 0 0 0

Total # of neighbors = 61718
Ave neighs/atom = 4.188815
Ave special neighs/atom = 1.4570381
Neighbor list builds = 61
Dangerous builds = 0

timestep  1.0
fix       cg_run2  all  nvt  temp 293.0 293.0 100.0
run       100
Generated 0 of 3 mixed pair_coeff terms from arithmetic mixing rule
WARNING: Communication cutoff 12 is shorter than a bond length based estimate of 12.4988. This may lead to errors. (src/comm.cpp:723)
Per MPI rank memory allocation (min/avg/max) = 11.18 | 11.18 | 11.18 Mbytes
   Step          Temp          E_bond         E_pair         PotEng         KinEng         TotEng         Press     
      2001   0              0.0016626551   0.20174672     0.21416291     0              0.21416291     0.1120705    
      2100   0.00014489035  0.0019771521   0.19645295     0.2084055      0.0063630442   0.21476854     0.11129325   
      2101   0.00014776489  0.0019669822   0.19636206     0.20829963     0.0064892836   0.21478892     0.11127794   
Loop time of 0.124484 on 1 procs for 100 steps with 14734 atoms

Performance: 69.407 ns/day, 0.346 hours/ns, 803.319 timesteps/s, 11.836 Matom-step/s
100.0% CPU use with 1 MPI tasks x 1 OpenMP threads

MPI task timing breakdown:
Section |  min time  |  avg time  |  max time  |%varavg| %total
---------------------------------------------------------------
Pair    | 0.050294   | 0.050294   | 0.050294   |   0.0 | 40.40
Bond    | 0.012858   | 0.012858   | 0.012858   |   0.0 | 10.33
Neigh   | 0          | 0          | 0          |   0.0 |  0.00
Comm    | 9.791e-06  | 9.791e-06  | 9.791e-06  |   0.0 |  0.01
Output  | 0.048858   | 0.048858   | 0.048858   |   0.0 | 39.25
Modify  | 0.011139   | 0.011139   | 0.011139   |   0.0 |  8.95
Other   |            | 0.001326   |            |       |  1.06

Nlocal:          14734 ave       14734 max       14734 min
Histogram: 1 0 0 0 0 0 0 0 0 0
Nghost:              0 ave           0 max           0 min
Histogram: 1 0 0 0 0 0 0 0 0 0
Neighs:          61673 ave       61673 max       61673 min
Histogram: 1 0 0 0 0 0 0 0 0 0

Total # of neighbors = 61673
Ave neighs/atom = 4.1857608
Ave special neighs/atom = 1.4570381
Neighbor list builds = 0
Dangerous builds = 0
unfix     cg_run2

timestep  2.0
fix       cg_run2  all  nvt  temp 293.0 293.0 100.0
run       150000
Generated 0 of 3 mixed pair_coeff terms from arithmetic mixing rule
WARNING: Communication cutoff 12 is shorter than a bond length based estimate of 12.4988. This may lead to errors. (src/comm.cpp:723)
Per MPI rank memory allocation (min/avg/max) = 11.18 | 11.18 | 11.18 Mbytes
   Step          Temp          E_bond         E_pair         PotEng         KinEng         TotEng         Press     
      2101   0.00014776489  0.0019669822   0.19636206     0.20829963     0.0064892836   0.21478892     0.11127794   
      2200   0.00083256021  0.0019992703   0.17663028     0.18789898     0.036562943    0.22446192     0.10390099   
      2300   0.002764233    0.0015201352   0.14081702     0.15020231     0.12139482     0.27159713     0.089734853  
      2400   0.0073004351   0.00065043433  0.093389674    0.10040615     0.32060791     0.42101407     0.068652182  
      2500   0.017393041    0.00048549346  0.049431868    0.055761736    0.76383755     0.81959929     0.043829538  
      2600   0.040312814    0.0029764888   0.029308352    0.038700801    1.7703886      1.8090894      0.025354816  
      2700   0.09494247     0.0097165935   0.045096935    0.066470545    4.1695196      4.2359901      0.026274784  
      2800   0.2317389      0.020456072    0.10150037     0.144893       10.177109      10.322002      0.04362284   
      2900   0.58464603     0.031856013    0.25607648     0.34596348     25.675476      26.021439      0.086232368  
      3000   1.5164118      0.040327294    0.75704787     0.99447892     66.595157      67.589636      0.1930073    
      3100   4.0411007      0.050020723    1.7920188      2.628687       177.47009      180.09878      0.40046762   
      3200   11.003452      0.14525337     4.578656       7.4342536      483.23063      490.66489      0.86625151   
      3300   30.30868       0.69080407     10.392914      20.006783      1331.0443      1351.0511      1.8371807    
      3400   81.976113      3.0372367      21.165549      49.720421      3600.0855      3649.8059      3.9015705    
      3500   198.70493      13.791394      41.220304      122.66577      8726.3801      8849.0459      8.1036687    
      3600   332.05543      33.828896      43.978548      203.0277       14582.637      14785.665      11.962906    
      3700   269.66887      47.371199      35.557318      225.32013      11842.852      12068.172      9.6100409    
      3800   306.11478      70.292237      50.722625      276.98329      13443.421      13720.404      10.830894    
      3900   288.07175      69.121669      32.035819      262.79673      12651.038      12913.835      9.8453901    
      4000   289.64627      73.206497      17.119291      262.95719      12720.185      12983.142      9.4550063    
      4100   301.30032      73.298355      10.685819      258.10595      13231.988      13490.094      9.6348702    
      4200   280.07285      81.639616      12.652311      275.21432      12299.756      12574.97       8.9227377    
      4300   307.73623      119.20923      31.007103      365.77901      13514.629      13880.408      10.092355    
      4400   277.91089      147.01835      33.6837        420.60914      12204.811      12625.42       8.8816701    
      4500   307.26984      198.26758      61.886574      560.20205      13494.147      14054.349      10.409354    
      4600   281.92609      230.51151      57.387468      639.40296      12381.144      13020.547      9.7020233    
      4700   300.42318      279.58711      70.581056      787.80091      13193.467      13981.268      10.551498    
      4800   289.85938      319.42134      74.109006      887.80007      12729.544      13617.344      10.422946    
      4900   291.4823       342.25449      85.246183      972.7002       12800.817      13773.517      10.409836    
      5000   298.80027      377.11309      80.623465      1066.6353      13122.195      14188.83       10.313968    
      5100   284.8562       385.36145      84.014985      1100.4005      12509.823      13610.224      10.199022    
      5200   304.00056      425.33964      95.803709      1208.386       13350.572      14558.958      10.910346    
      5300   283.34072      440.00505      78.638921      1218.3003      12443.269      13661.569      9.8777446    
      5400   301.70335      486.44856      88.431409      1356.4855      13249.687      14606.173      10.508683    
      5500   287.83606      497.34292      91.150918      1387.8165      12640.687      14028.504      10.146619    
      5600   295.05617      533.25551      102.79155      1527.8397      12957.768      14485.608      10.582997    
      5700   295.4616       595.08526      109.95837      1671.0821      12975.573      14646.655      10.236358    
      5800   287.67003      659.91624      139.1891       1853.0689      12633.396      14486.465      10.56451     
      5900   300.20714      744.68883      179.55362      2100.2678      13183.979      15284.247      11.308289    
      6000   284.32269      766.00396      166.85762      2149.7899      12486.393      14636.183      10.886616    
      6100   301.32126      848.69868      175.1195       2357.7719      13232.907      15590.679      11.549011    
      6200   286.84787      930.80936      194.884        2487.3975      12597.29       15084.687      11.135063    
      6300   295.1316       1007.4221      211.21697      2652.5895      12961.08       15613.67       11.369576    
      6400   294.71433      1081.7878      220.55843      2848.0952      12942.755      15790.85       11.764558    
      6500   287.89737      1144.5789      228.71484      2973.7916      12643.38       15617.172      12.241648    
      6600   298.97436      1226.8576      293.66971      3196.1961      13129.84       16326.036      13.560547    
      6700   288.36278      1257.5068      281.72136      3214.5667      12663.819      15878.386      13.571838    
      6800   297.68614      1334.0431      292.51413      3430.8905      13073.266      16504.157      13.811503    
      6900   291.27278      1363.2301      293.40167      3478.8139      12791.616      16270.429      13.763296    
      7000   291.66472      1407.5807      287.95309      3536.8891      12808.828      16345.717      13.314255    
      7100   296.69055      1472.9972      285.77261      3626.9789      13029.544      16656.522      13.036771    
      7200   286.30317      1490.9167      278.73227      3640.046       12573.369      16213.415      11.753447    
      7300   298.3252       1537.1887      266.00691      3764.6951      13101.331      16866.026      11.993738    
      7400   288.38568      1488.7617      201.7609       3622.2928      12664.825      16287.118      10.776139    
      7500   294.31455      1502.8014      212.88127      3691.9819      12925.199      16617.181      11.278849    
      7600   296.2968       1534.2014      201.20279      3698.2427      13012.252      16710.494      9.6291126    
      7700   288.42201      1518.8198      197.22309      3625.9256      12666.42       16292.346      9.1933276    
      7800   301.18576      1559.5576      198.83272      3669.3564      13226.957      16896.313      9.2552055    
      7900   287.73681      1524.7037      174.49571      3509.0868      12636.329      16145.415      9.573834     
      8000   298.39305      1560.4476      175.79925      3581.4904      13104.311      16685.801      9.9721573    
      8100   292.44147      1589.4535      171.51807      3596.0258      12842.94       16438.966      9.3128529    
      8200   289.87999      1582.9809      143.82945      3581.5027      12730.449      16311.952      8.9975319    
      8300   297.69125      1593.9955      169.26791      3677.3671      13073.491      16750.858      9.6401864    
      8400   286.59032      1526.5563      134.04322      3525.3433      12585.979      16111.322      8.3925617    
      8500   298.69391      1563.9748      129.22221      3574.9023      13117.524      16692.426      8.4998845    
      8600   289.21125      1554.9689      131.58729      3561.5422      12701.081      16262.623      8.3981552    
      8700   292.26767      1577.1514      125.98821      3551.882       12835.307      16387.189      7.9033474    
      8800   296.55623      1594.531       115.38523      3530.1296      13023.645      16553.774      8.0119862    
      8900   288.19786      1557.068       111.27745      3457.6146      12656.576      16114.191      7.7345075    
      9000   299.04297      1596.6653      111.52393      3521.5464      13132.853      16654.4        8.0002307    
      9100   288.86388      1560.2094      103.58681      3434.5296      12685.825      16120.355      7.6166673    
      9200   296.46918      1576.8736      106.61437      3464.3582      13019.822      16484.18       8.1764963    
      9300   295.19406      1562.0889      98.338252      3408.3278      12963.823      16372.151      8.1199385    
      9400   290.9022       1553.5132      100.53797      3391.7951      12775.341      16167.136      8.1853566    
      9500   299.71099      1585.2877      91.646802      3438.3135      13162.19       16600.504      7.9191968    
      9600   288.1777       1548.6526      100.86461      3376.7141      12655.691      16032.405      8.0555302    
      9700   298.81524      1579.2866      98.832896      3476.8447      13122.852      16599.697      8.305963     
      9800   290.36498      1581.1573      101.11206      3495.6923      12751.748      16247.441      7.9819314    
      9900   292.0501       1592.6229      105.82944      3524.9407      12825.752      16350.693      8.0325714    
     10000   296.16433      1610.7598      93.474132      3534.5775      13006.434      16541.012      7.7000574    
     10100   288.25816      1600.4857      95.996077      3517.7803      12659.225      16177.005      7.4344552    
     10200   298.85986      1635.408       106.12271      3593.3647      13124.812      16718.176      8.028218     
     10300   288.27364      1604.3485      121.3647       3545.5524      12659.904      16205.457      7.9320819    
     10400   296.45601      1617.548       105.68442      3592.9039      13019.244      16612.148      7.927831     
     10500   292.48537      1625.9891      124.41139      3645.1255      12844.868      16489.993      7.5922697    
     10600   290.63396      1610.6668      109.7615       3643.8886      12763.561      16407.449      7.2442698    
     10700   297.43597      1645.8121      115.02655      3699.9238      13062.28       16762.203      7.4147364    
     10800   287.82372      1622.97        129.64223      3648.7162      12640.145      16288.862      7.3508837    
     10900   297.78441      1687.1921      133.91655      3739.5824      13077.582      16817.164      7.4348278    
     11000   291.73073      1669.1957      106.9592       3675.0597      12811.727      16486.786      7.5368088    
     11100   294.8934       1656.5079      116.03241      3672.1826      12950.619      16622.802      8.2743891    
     11200   297.14477      1695.9153      146.4928       3795.3622      13049.491      16844.853      8.9346553    
     11300   290.18898      1711.5169      141.9033       3782.9241      12744.019      16526.943      9.2005715    
     11400   297.63144      1765.3944      122.78627      3875.6732      13070.864      16946.537      8.8094283    
     11500   288.23175      1772.32        166.34646      3913.2291      12658.065      16571.294      9.656507     
     11600   293.35622      1821.4413      140.61753      3983.3527      12883.112      16866.465      9.1826189    
     11700   293.90688      1802.1007      136.00538      3955.5727      12907.295      16862.868      8.5583327    
     11800   290.77655      1805.5968      132.92652      3906.9734      12769.823      16676.796      7.8512639    
     11900   297.6649       1840.4339      134.99233      3956.244       13072.333      17028.577      7.7280385    
     12000   290.62539      1784.0783      149.9346       3876.551       12763.184      16639.735      8.2400781    
     12100   296.07476      1791.5525      138.44413      3911.066       13002.5        16913.566      8.4819516    
     12200   294.427        1793.1315      147.83404      3907.4352      12930.137      16837.572      8.5915848    
     12300   291.43876      1812.3946      142.52516      3929.6652      12798.905      16728.57       8.2261342    
     12400   297.02573      1869.8667      122.50389      3997.5039      13044.263      17041.767      7.967304     
     12500   288.13683      1872.4195      138.40116      4028.672       12653.896      16682.568      8.1394001    
     12600   294.49716      1884.939       133.80787      4075.311       12933.218      17008.529      8.1028709    
     12700   290.16659      1887.1733      135.91462      4060.6178      12743.035      16803.653      8.1780722    
     12800   291.30358      1871.3442      142.83261      4048.1688      12792.968      16841.137      8.3211994    
     12900   294.64952      1870.2305      124.23979      4049.2982      12939.909      16989.207      8.3403085    
     13000   290.44491      1836.328       119.84464      3984.7098      12755.259      16739.968      7.4769622    
     13100   296.32005      1847.5355      113.90545      4004.6409      13013.273      17017.914      7.1445715    
     13200   291.42649      1827.9886      114.01888      3959.0596      12798.366      16757.425      6.6063883    
     13300   293.78516      1868.317       110.55675      4025.9169      12901.95       16927.867      6.0643322    
     13400   293.89869      1873.6673      119.93007      4012.7678      12906.936      16919.703      6.2665195    
     13500   290.25257      1907.1005      104.48697      4004.1807      12746.812      16750.992      6.0728841    
     13600   294.64523      1950.0531      122.19827      4076.1253      12939.721      17015.846      6.6593538    
     13700   289.91531      1919.278       111.33995      3968.0979      12732          16700.098      6.4414551    
     13800   295.03181      1902.4234      108.1257       3981.2116      12956.698      16937.909      6.6994217    
     13900   293.72699      1853.7723      117.75695      3920.2418      12899.395      16819.637      7.0051124    
     14000   292.92608      1866.2335      113.19476      3934.8748      12864.222      16799.097      7.0343751    
     14100   295.16314      1915.5164      116.0748       4040.4293      12962.465      17002.895      7.1850327    
     14200   290.0598       1882.803       105.51735      3975.155       12738.346      16713.501      7.6075546    
     14300   295.43598      1906.7468      118.46222      4020.327       12974.448      16994.775      8.1186484    
     14400   291.48364      1926.2551      110.90443      4023.24        12800.875      16824.115      8.3953208    
     14500   292.39666      1936.4607      101.26972      4029.9112      12840.972      16870.883      8.382058     
     14600   295.12901      1934.0775      99.52107       4033.5272      12960.967      16994.494      8.6452464    
     14700   290.08171      1915.8304      103.49867      4037.2354      12739.308      16776.543      8.6543956    
     14800   296.61816      1936.4764      104.39723      4051.7869      13026.365      17078.151      8.2171992    
     14900   291.16868      1909.1801      114.16072      4022.2663      12787.044      16809.31       8.1299947    
     15000   296.15338      1907.9477      99.705602      3992.8655      13005.953      16998.819      7.4844387    
     15100   294.20386      1911.3445      104.66519      4014.8065      12920.338      16935.144      7.4140767    
     15200   292.03216      1884.2768      117.13618      4031.4441      12824.964      16856.409      7.6116749    
     15300   296.04944      1921.1366      103.88308      4098.8331      13001.388      17100.221      7.5914559    
     15400   288.43913      1941.4753      124.3941       4136.965       12667.172      16804.137      7.8211415    
     15500   294.36098      1983.7909      119.36727      4182.8909      12927.238      17110.128      7.4242293    
     15600   291.33734      1940.7518      109.55177      4122.3212      12794.45       16916.772      7.2725232    
     15700   292.31393      1918.5937      116.90018      4117.6125      12837.339      16954.952      7.6341651    
     15800   295.79786      1889.0431      123.14024      4080.5994      12990.34       17070.939      7.7086521    
     15900   291.05809      1888.2027      117.01608      4050.7118      12782.187      16832.899      7.5943606    
     16000   296.38511      1931.2761      131.87385      4133.1519      13016.13       17149.282      8.3843189    
     16100   291.02212      1931.003       128.58814      4128.206       12780.607      16908.813      8.0859362    
     16200   293.7443       1959.6214      124.22653      4146.9889      12900.155      17047.144      8.1988231    
     16300   292.97498      1984.0083      122.46402      4169.2719      12866.37       17035.642      8.2228759    
     16400   290.58567      1980.2944      117.69338      4164.6761      12761.44       16926.116      8.1684452    
     16500   295.82377      2023.4273      116.26505      4205.868       12991.478      17197.346      8.5404781    
     16600   290.76396      1977.8383      117.76331      4126.4394      12769.27       16895.709      8.6155028    
     16700   293.99254      2007.5261      117.02822      4194.7261      12911.057      17105.783      8.5874716    
     16800   293.68226      1991.9748      122.44215      4189.724       12897.431      17087.155      8.3483736    
     16900   291.94759      1957.7419      100.01768      4125.468       12821.251      16946.719      7.9592455    
     17000   295.34339      1978.9737      126.1119       4203.6277      12970.381      17174.009      8.3284393    
     17100   291.0171       1961.7222      116.07955      4165.4881      12780.387      16945.875      8.1857457    
     17200   295.15531      1980.6974      113.52944      4169.933       12962.122      17132.055      8.0851353    
     17300   293.01825      1970.97        120.14825      4159.3596      12868.27       17027.629      7.689318     
     17400   292.60725      1978.9831      126.25884      4185.3751      12850.221      17035.596      7.8428843    
     17500   295.96794      1965.3157      120.90807      4160.1552      12997.809      17157.964      7.4340721    
     17600   292.02195      1948.3582      123.11752      4113.0294      12824.516      16937.546      6.9710495    
     17700   294.85278      1979.8155      130.35767      4181.7097      12948.836      17130.545      6.8880814    
     17800   293.15276      1985.3036      126.50965      4178.2161      12874.177      17052.393      6.5870395    
     17900   293.28404      2004.8028      125.84834      4173.4466      12879.942      17053.389      6.7244873    
     18000   294.40593      2003.2824      101.46203      4148.0735      12929.212      17077.285      6.2427526    
     18100   292.23335      2014.0626      111.98506      4150.5158      12833.8        16984.316      6.8595156    
     18200   295.64856      2020.473       113.64602      4151.2158      12983.783      17134.999      6.8329351    
     18300   292.40863      2026.1264      126.74882      4148.9746      12841.498      16990.472      7.5907244    
     18400   294.98101      2020.3173      118.34257      4151.8136      12954.467      17106.281      7.4454435    
     18500   293.71437      1983.9015      118.28312      4132.6945      12898.841      17031.536      7.536833     
     18600   294.54663      1964.7918      108.41717      4110.2888      12935.39       17045.679      7.5843779    
     18700   296.10433      1959.254       102.74229      4105.7035      13003.799      17109.503      7.507035     
     18800   292.03379      1946.9466      112.42689      4105.9291      12825.036      16930.965      7.7519542    
     18900   295.27747      1963.9855      103.09176      4127.3261      12967.486      17094.812      6.8821662    
     19000   292.01131      1980.1931      110.30727      4119.75        12824.049      16943.799      7.10125      
     19100   293.15506      2008.2236      91.597421      4139.5039      12874.278      17013.782      6.7218699    
     19200   293.49309      1992.0245      108.5936       4135.9441      12889.123      17025.067      6.9192737    
     19300   292.28255      1984.3799      96.743562      4084.0413      12835.961      16920.002      7.2536411    
     19400   294.72966      2007.7544      97.175833      4116.9647      12943.429      17060.393      7.069575     
     19500   292.31946      1997.8183      122.66663      4109.619       12837.582      16947.201      7.6466474    
     19600   292.938        1994.8826      108.23626      4114.8952      12864.746      16979.641      7.3757619    
     19700   292.30698      1991.9634      115.96098      4134.4415      12837.034      16971.475      7.3569969    
     19800   291.9061       1974.6756      100.78753      4102.4755      12819.428      16921.904      7.0382236    
     19900   294.91825      1944.5294      114.0024       4071.2491      12951.711      17022.96       7.3196528    
     20000   292.50593      1945.403       117.36624      4068.1741      12845.771      16913.945      7.2092241    
     20100   295.51367      1946.2418      108.09863      4087.9366      12977.86       17065.796      7.3465082    
     20200   294.13273      1957.3773      109.91833      4069.6934      12917.214      16986.907      7.6420259    
     20300   293.91493      1954.2798      108.96714      4064.1605      12907.649      16971.809      8.4519433    
     20400   295.34548      1943.6458      101.12604      4074.4791      12970.473      17044.952      8.7803547    
     20500   291.97975      1952.8543      114.34384      4086.0885      12822.663      16908.751      9.4143015    
     20600   294.8303       1977.4976      107.98983      4121.6881      12947.849      17069.537      9.1749878    
     20700   291.91359      1982.6144      123.69839      4125.5326      12819.757      16945.29       9.2673689    
     20800   292.66164      2006.2679      128.2048       4192.0448      12852.609      17044.654      9.449311     
     20900   293.05606      2004.83        112.26675      4181.7198      12869.93       17051.65       8.8726357    
     21000   292.25189      1975.3693      107.84066      4132.7721      12834.614      16967.386      8.6405504    
     21100   294.61527      1971.6737      110.44225      4159.2123      12938.405      17097.617      8.5383887    
     21200   290.98432      1974.0716      112.4056       4164.1948      12778.947      16943.142      8.1835627    
     21300   295.08616      1999.1064      100.84564      4200.3495      12959.085      17159.434      7.7784057    
     21400   292.02171      2017.2485      123.8181       4215.9699      12824.505      17040.475      7.8673249    
     21500   294.19543      2012.5669      103.9575       4168.9344      12919.967      17088.902      7.2421888    
     21600   294.22415      2025.7679      130.41215      4193.3568      12921.228      17114.585      8.0442137    
     21700   293.39748      2021.5396      114.31476      4164.9378      12884.924      17049.862      7.6310149    
     21800   295.75098      2018.3478      98.607492      4161.8578      12988.281      17150.139      6.9603016    
     21900   292.11362      1999.4118      117.0076       4202.3571      12828.542      17030.899      7.63046      
     22000   293.22448      2013.2149      107.95583      4235.7215      12877.327      17113.048      7.2218039    
     22100   291.56843      2057.2929      110.59401      4310.8691      12804.599      17115.468      6.3171756    
     22200   289.67395      2064.2919      119.55939      4335.07        12721.401      17056.471      6.593699     
     22300   292.1482       2061.4144      105.94721      4313.0208      12830.061      17143.081      6.8286311    
     22400   291.4656       2035.9215      125.16188      4266.4663      12800.083      17066.55       7.4885746    
     22500   293.15802      2017.1282      105.16518      4231.8445      12874.408      17106.253      7.3745839    
     22600   293.15555      2005.9812      119.09343      4250.8294      12874.3        17125.129      7.1385894    
     22700   291.46299      2025.1689      112.71326      4251.7162      12799.969      17051.685      6.7093684    
     22800   292.79785      2021.0939      111.73209      4261.0883      12858.591      17119.679      6.8731275    
     22900   291.52032      2003.3155      106.46816      4227.6346      12802.486      17030.121      6.6772165    
     23000   294.22069      1993.3556      93.215691      4191.6494      12921.076      17112.726      7.0514244    
     23100   292.6425       1981.8397      120.61388      4207.6349      12851.769      17059.403      7.1133686    
     23200   292.91616      1990.5152      123.44837      4212.1045      12863.786      17075.891      7.5537116    
     23300   293.43736      2004.069       110.08976      4223.0753      12886.676      17109.751      6.9879132    
     23400   292.06567      2021.8813      105.66757      4244.7755      12826.436      17071.212      7.3735339    
     23500   292.55142      2043.3936      105.13478      4274.8545      12847.768      17122.623      7.7257552    
     23600   291.83219      2047.2994      112.8855       4281.8989      12816.182      17098.081      7.6861448    
     23700   290.80564      2080.9561      104.2668       4309.8174      12771.1        17080.918      7.4708717    
     23800   292.07465      2078.1723      103.2033       4296.0472      12826.831      17122.878      7.3263707    
     23900   291.34598      2058.5456      95.339274      4273.0073      12794.83       17067.837      6.5695995    
     24000   293.66581      2016.8256      105.74282      4267.759       12896.708      17164.467      7.0226675    
     24100   292.96435      1991.5832      105.37764      4250.1719      12865.903      17116.075      7.0411025    
     24200   293.71692      1987.5095      98.23044       4232.7487      12898.953      17131.702      6.7626958    
     24300   293.45249      2000.1109      99.367169      4241.7221      12887.34       17129.062      6.5444739    
     24400   291.91931      2028.4286      93.889655      4255.8857      12820.009      17075.894      6.5217802    
     24500   291.89488      2075.985       97.255872      4337.6715      12818.936      17156.607      6.7060621    
     24600   290.35271      2085.1871      110.48689      4340.6214      12751.209      17091.831      7.0475689    
     24700   291.78622      2100.3155      113.61085      4343.6168      12814.164      17157.78       6.6866564    
     24800   292.22418      2086.1898      106.27104      4331.5269      12833.397      17164.924      6.2781545    
     24900   291.41737      2075.0542      114.58335      4300.3221      12797.965      17098.287      5.9453101    
     25000   293.32925      2055.3613      121.22033      4291.9671      12881.928      17173.895      6.4439722    
     25100   292.22092      2012.7504      110.62151      4219.5333      12833.254      17052.787      6.5086171    
     25200   294.66449      2010.9984      99.314596      4207.7956      12940.567      17148.362      6.8707497    
     25300   292.23497      2007.3438      104.15596      4219.4628      12833.871      17053.334      7.5630886    
     25400   293.70487      2007.2797      103.61341      4215.7865      12898.424      17114.21       7.744355     
     25500   291.86267      2022.4311      114.65108      4260.3446      12817.521      17077.866      7.6172692    
     25600   291.06714      2053.7482      105.60636      4291.7264      12782.584      17074.311      7.2140042    
     25700   291.48065      2099.4169      112.79033      4377.1755      12800.744      17177.92       7.1811722    
     25800   290.06551      2068.584       120.65916      4345.444       12738.597      17084.041      6.74704      
     25900   290.82934      2057.9805      90.012709      4341.8252      12772.141      17113.967      6.3427182    
     26000   291.42661      2063.8987      107.38928      4344.5367      12798.371      17142.908      7.1402682    
     26100   291.87619      2036.8774      98.786599      4261.7389      12818.115      17079.854      7.2246051    
     26200   291.29544      2050.5129      118.77463      4289.2534      12792.611      17081.864      7.8832709    
     26300   292.21186      2028.0814      97.799659      4249.9209      12832.856      17082.777      7.7139085    
     26400   291.60489      2010.8734      133.0479       4278.5651      12806.2        17084.765      8.1576211    
     26500   292.59329      1988.8553      106.01993      4236.496       12849.607      17086.103      7.944892     
     26600   291.81338      1990.7512      109.4992       4218.5894      12815.356      17033.946      7.7245967    
     26700   293.32248      2025.9141      100.66253      4219.4967      12881.631      17101.127      7.5327341    
     26800   292.33058      2020.572       105.82812      4199.1232      12838.07       17037.193      7.5653618    
     26900   292.60235      2023.4274      112.52861      4210.9652      12850.005      17060.97       7.5105498    
     27000   292.47037      2043.2776      101.13323      4239.9621      12844.209      17084.171      7.1695555    
     27100   292.45752      2026.1816      108.13599      4236.7221      12843.645      17080.367      7.8247623    
     27200   293.46686      2042.2103      107.95111      4254.5199      12887.971      17142.491      8.0850803    
     27300   292.36102      2045.2605      110.31992      4220.0441      12839.407      17059.451      8.4486434    
     27400   293.73244      2080.8299      107.04705      4242.0851      12899.634      17141.719      8.1754708    
     27500   292.5087       2065.9814      115.45225      4235.995       12845.892      17081.887      8.0462964    
     27600   292.65736      2084.6654      88.437186      4226.3318      12852.421      17078.753      7.3776008    
     27700   292.30576      2087.954       122.5959       4303.5845      12836.98       17140.565      7.6146795    
     27800   293.41308      2084.7754      107.315        4256.4386      12885.609      17142.048      7.7438398    
     27900   292.00188      2072.3562      119.42693      4275.2388      12823.635      17098.874      8.159498     
     28000   295.17683      2061.9038      84.909839      4194.923       12963.067      17157.99       7.0785155    
     28100   292.44118      2042.1435      104.58636      4228.7755      12842.927      17071.703      7.1774318    
     28200   294.17956      2032.3378      105.13718      4229.4853      12919.27       17148.756      6.99269      
     28300   293.0405       2019.1475      116.20523      4205.8777      12869.247      17075.125      7.5965774    
     28400   292.83703      2029.5266      105.37814      4235.537       12860.311      17095.848      7.5621769    
     28500   294.24126      2047.3951      110.21259      4280.0606      12921.98       17202.041      8.0658613    
     28600   290.70142      2050.8723      114.68568      4250.5077      12766.523      17017.031      8.4626247    
     28700   294.6549       2073.2781      110.57243      4254.2766      12940.146      17194.422      8.7034452    
     28800   293.18013      2062.348       98.033243      4187.6735      12875.379      17063.052      8.0580801    
     28900   292.43369      2084.0433      96.70261       4233.2601      12842.598      17075.858      8.1327605    
     29000   294.25454      2087.2507      104.93884      4243.5139      12922.563      17166.077      8.2228106    
     29100   290.84035      2068.102       105.08406      4236.2541      12772.625      17008.879      7.8330751    
     29200   294.68385      2092.5278      101.53737      4274.1188      12941.417      17215.536      7.4452258    
     29300   290.17346      2067.9129      103.05024      4245.3011      12743.337      16988.639      7.6366296    
     29400   292.05249      2067.1028      101.51278      4295.9797      12825.858      17121.837      7.6121309    
     29500   293.06777      2028.9505      99.94123       4248.8409      12870.445      17119.285      7.5399764    
     29600   290.89302      2017.5092      116.30428      4223.0823      12774.938      16998.02       7.7904134    
     29700   295.69341      2034.6179      100.2813       4242.2752      12985.753      17228.028      7.2299269    
     29800   290.03633      2037.4467      104.90152      4234.359       12737.315      16971.674      6.8669028    
     29900   293.374        2081.3526      116.14435      4292.7249      12883.893      17176.618      7.3614036    
     30000   292.36381      2090.0486      102.13395      4264.1952      12839.53       17103.725      6.9616114    
     30100   291.41735      2073.8948      90.126319      4232.7307      12797.964      17030.695      7.053752     
     30200   295.72571      2054.586       109.26444      4220.8317      12987.172      17208.003      7.4158207    
     30300   291.34885      2008.6183      118.04507      4159.5609      12794.956      16954.517      6.8524422    
     30400   296.40335      2002.6563      111.4555       4159.6837      13016.931      17176.614      6.7766902    
     30500   292.51501      1994.38        110.68218      4159.0823      12846.17       17005.252      6.4837528    
     30600   293.69986      2008.2874      98.334304      4190.3258      12898.204      17088.529      6.3403756    
     30700   293.94241      2040.1408      117.6322       4238.0143      12908.855      17146.87       7.1649669    
     30800   291.37456      2036.0376      118.10112      4227.6332      12796.085      17023.718      7.8048065    
     30900   294.5624       2063.0336      115.65262      4262.7927      12936.083      17198.876      7.9784169    
     31000   291.27285      2035.2257      108.06063      4217.7313      12791.618      17009.35       7.8805426    
     31100   293.51243      2049.0223      121.12532      4294.6568      12889.973      17184.629      8.251742     
     31200   292.07163      2047.5727      120.81924      4307.915       12826.698      17134.613      8.3629706    
     31300   291.60924      2053.5717      100.35726      4254.5466      12806.391      17060.938      8.2437957    
     31400   295.33785      2069.8311      96.122932      4291.325       12970.138      17261.463      7.9900848    
     31500   290.57465      2037.9836      129.62176      4281.4511      12760.956      17042.407      7.7943523    
     31600   294.62616      2071.6345      111.68904      4275.0853      12938.883      17213.969      7.3204545    
     31700   292.33333      2072.5615      118.78359      4272.8188      12838.191      17111.01       7.4764779    
     31800   292.60567      2067.2232      112.54609      4272.316       12850.151      17122.467      8.003856     
     31900   294.81027      2076.6512      101.35866      4266.8422      12946.969      17213.811      8.413549     
     32000   291.29682      2045.9969      111.56679      4219.0372      12792.671      17011.708      8.381118     
     32100   295.24177      2051.1423      114.01628      4256.0197      12965.919      17221.938      8.0373049    
     32200   291.97254      2038.4191      130.63206      4219.4129      12822.346      17041.759      7.5394875    
     32300   292.75967      2070.4046      109.85134      4237.5428      12856.914      17094.457      7.5228677    
     32400   293.38041      2083.2875      113.15189      4278.6703      12884.175      17162.845      7.818765     
     32500   290.54231      2092.6775      94.882144      4280.9425      12759.536      17040.478      7.1720982    
     32600   294.29634      2113.9298      108.74408      4317.9057      12924.399      17242.305      7.9923412    
     32700   289.35908      2095.3038      123.64253      4304.04        12707.573      17011.613      8.5459823    
     32800   293.55613      2081.3314      105.67791      4299.2376      12891.892      17191.129      8.5161829    
     32900   291.87955      2099.2988      104.83733      4287.4698      12818.262      17105.732      8.6103776    
     33000   291.67375      2090.0339      101.50596      4271.855       12809.224      17081.079      8.4803239    
     33100   295.35646      2064.5288      101.1611       4266.7442      12970.955      17237.7        8.7376321    
     33200   291.63505      2013.9985      110.25838      4196.7231      12807.525      17004.248      8.7718903    
     33300   295.90258      2051.7427      103.41801      4227.0386      12994.939      17221.977      8.0485662    
     33400   292.22955      2056.2324      121.72488      4238.9601      12833.633      17072.593      7.8647046    
     33500   292.38145      2082.3248      127.00024      4308.481       12840.304      17148.785      7.739946     
     33600   294.49836      2104.1771      108.57725      4308.4588      12933.271      17241.73       6.3555214    
     33700   289.7315       2087.1044      113.33572      4277.438       12723.928      17001.366      6.0897213    
     33800   294.79911      2119.3013      106.27655      4346.9204      12946.479      17293.399      5.3530802    
     33900   290.33687      2071.9248      122.66303      4292.3268      12750.514      17042.841      5.8282336    
     34000   293.89719      2070.649       105.92115      4284.9814      12906.87       17191.851      5.654267     
     34100   294.07915      2096.3422      107.85166      4286.6387      12914.861      17201.499      6.5646795    
     34200   291.51129      2114.4742      95.789634      4261.2265      12802.09       17063.316      6.9238478    
     34300   294.7143       2129.7002      108.54861      4307.0659      12942.754      17249.82       7.2432276    
     34400   290.74499      2099.4434      127.52635      4290.6685      12768.437      17059.105      7.7407692    
     34500   294.31321      2104.8511      126.60597      4282.4259      12925.14       17207.566      8.4850213    
     34600   294.0414       2091.1962      106.64077      4246.5235      12913.203      17159.727      8.5716378    
     34700   292.75229      2098.5304      102.2104       4251.4119      12856.59       17108.002      8.6619915    
     34800   295.23439      2107.7031      121.2623       4291.3106      12965.594      17256.905      8.9180924    
     34900   291.14752      2089.6234      116.2495       4254.9874      12786.114      17041.102      8.5537319    
     35000   294.66625      2085.757       109.66771      4256.9802      12940.644      17197.624      8.6777252    
     35100   291.25172      2042.7606      107.58911      4191.8385      12790.691      16982.529      8.6937013    
     35200   294.07209      2052.9312      104.92555      4235.9418      12914.551      17150.492      8.5671066    
     35300   293.44455      2073.577       110.22562      4271.0381      12886.991      17158.03       8.1026867    
     35400   291.0729       2101.0401      121.8255       4323.0952      12782.838      17105.933      7.9975569    
     35500   294.02652      2127.6346      117.25557      4364.8436      12912.549      17277.393      7.5609784    
     35600   289.3278       2097.9493      110.67582      4311.0579      12706.199      17017.257      7.6446668    
     35700   293.42677      2077.6833      95.706974      4272.7774      12886.21       17158.988      7.2028005    
     35800   292.63576      2047.8481      108.0212       4267.612       12851.472      17119.084      7.9616853    
     35900   292.28766      2044.6672      120.72582      4272.0648      12836.185      17108.25       8.0303759    
     36000   295.50728      2045.9579      100.35366      4238.8508      12977.579      17216.43       7.4050373    
     36100   291.19534      2031.6626      112.80802      4233.6445      12788.215      17021.859      7.7729797    
     36200   295.99487      2085.5442      99.990621      4303.1428      12998.992      17302.135      7.5268179    
     36300   292.64081      2077.4261      124.03832      4277.8135      12851.694      17129.508      7.778331     
     36400   293.45872      2079.9174      107.55126      4262.3794      12887.614      17149.993      7.9639994    
     36500   297.2805       2090.6077      117.15611      4301.8584      13055.452      17357.311      7.95847      
     36600   292.29839      2081.2147      117.42429      4228.3565      12836.657      17065.013      7.9561678    
     36700   295.18985      2115.3458      108.77419      4278.6061      12963.638      17242.244      7.7139675    
     36800   291.18952      2099.0013      113.32933      4275.6524      12787.959      17063.611      7.1135519    
     36900   293.89184      2103.9226      120.48786      4251.7077      12906.634      17158.342      6.3356571    
     37000   294.00975      2088.169       107.84114      4221.2946      12911.813      17133.107      6.2048756    
     37100   293.14212      2049.8989      123.14339      4190.8031      12873.71       17064.513      6.7120166    
     37200   293.93543      2063.5488      96.858581      4208.2885      12908.549      17116.837      6.3152513    
     37300   290.8975       2067.5284      97.878048      4223.4008      12775.135      16998.535      6.7611581    
     37400   294.83967      2109.1807      100.74663      4287.3144      12948.26       17235.574      6.3945787    
     37500   291.40017      2120.2797      103.35012      4267.3947      12797.21       17064.605      6.4261261    
     37600   290.99312      2152.4554      116.75107      4304.8078      12779.334      17084.141      6.6531185    
     37700   293.52882      2152.6029      108.77601      4299.3536      12890.692      17190.046      7.0367878    
     37800   288.56587      2137.279       106.91594      4281.4964      12672.738      16954.234      7.4629856    
     37900   293.10272      2154.5677      112.32552      4356.1783      12871.979      17228.158      8.1096567    
     38000   291.81431      2131.7234      111.63665      4327.01        12815.397      17142.407      7.8227237    
     38100   291.37614      2126.9511      105.93985      4317.6407      12796.155      17113.795      8.0086766    
     38200   294.7888       2131.8111      112.60004      4336.3586      12946.026      17282.384      7.9401274    
     38300   291.0281       2106.8798      101.90909      4296.3565      12780.87       17077.226      7.3652803    
     38400   292.87092      2118.1669      117.74506      4320.3718      12861.8        17182.172      7.0487663    
     38500   291.71839      2129.7806      109.7638       4329.8423      12811.185      17141.027      6.3154111    
     38600   292.44973      2134.8101      107.0967       4337.275       12843.303      17180.578      5.9712669    
     38700   293.2044       2095.4206      106.59977      4295.9996      12876.445      17172.444      6.4867097    
     38800   290.85249      2071.5612      103.6247       4264.8473      12773.158      17038.005      5.9302495    
     38900   295.95512      2068.6294      94.398119      4273.7962      12997.246      17271.042      5.9487975    
     39000   291.33012      2064.1605      123.82724      4260.3198      12794.134      17054.453      6.3189516    
     39100   294.1258       2075.5037      105.69031      4276.705       12916.909      17193.614      6.9612798    
     39200   289.27859      2095.0708      116.72074      4264.4187      12704.038      16968.457      7.0997557    
     39300   291.50502      2120.0182      105.30036      4324.9781      12801.814      17126.792      7.0454462    
     39400   290.81974      2114.4326      120.82107      4349.5722      12771.719      17121.292      7.8013518    
     39500   290.39911      2127.187       111.45238      4348.1688      12753.247      17101.416      7.7375046    
     39600   293.04819      2137.2376      119.9784       4390.7242      12869.585      17260.309      8.4154803    
     39700   289.13393      2084.7178      110.88971      4314.8196      12697.685      17012.505      8.3053513    
     39800   293.08482      2104.6704      98.289772      4343.0571      12871.194      17214.251      8.4189238    
     39900   292.75306      2086.8183      103.66813      4305.1196      12856.624      17161.744      8.3987211    
     40000   292.96839      2082.3168      99.120444      4290.8056      12866.08       17156.886      8.0593924    
     40100   295.28044      2086.041       104.69668      4293.0859      12967.617      17260.703      7.9042151    
     40200   291.22252      2061.8446      111.88479      4255.5458      12789.408      17044.954      7.9588143    
     40300   294.67424      2064.7543      120.06408      4280.0563      12940.995      17221.051      7.6289149    
     40400   292.80148      2067.8049      113.44376      4277.0583      12858.75       17135.809      7.3367362    
     40500   296.18221      2103.9891      117.68543      4350.8989      13007.219      17358.118      7.437394     
     40600   292.40497      2054.366       116.34794      4294.3172      12841.337      17135.654      7.4689944    
     40700   292.30497      2062.8205      108.45369      4293.0233      12836.945      17129.969      7.4098409    
     40800   293.70402      2071.6939      120.20401      4340.3921      12898.386      17238.778      8.1185659    
     40900   288.82435      2090.3676      103.11441      4326.4691      12684.089      17010.558      7.8681718    
     41000   291.54245      2129.0934      125.1156       4406.2332      12803.458      17209.692      8.379572     
     41100   288.72806      2127.8426      146.66978      4383.7478      12679.861      17063.608      9.1321159    
     41200   292.95503      2102.1532      97.99422       4267.6324      12865.494      17133.126      8.4900085    
     41300   293.34955      2087.3501      111.3408       4262.1328      12882.82       17144.952      8.6544902    
     41400   292.52552      2067.5224      89.769256      4213.1024      12846.631      17059.734      7.7420012    
     41500   295.88901      2077.5546      104.03963      4287.8968      12994.343      17282.24       8.2248298    
     41600   291.54825      2078.3062      100.5276       4260.0545      12803.713      17063.767      8.1345326    
     41700   293.0173       2101.7459      124.90373      4323.0631      12868.228      17191.291      8.6463667    
     41800   290.32151      2105.5772      104.23627      4296.8539      12749.839      17046.693      8.0333803    
     41900   292.10768      2127.5678      110.71785      4336.3103      12828.281      17164.591      8.4741004    
     42000   292.4329       2122.9054      118.59836      4348.8326      12842.564      17191.396      8.758445     
     42100   288.91625      2099.9424      123.24394      4315.4224      12688.125      17003.548      8.2955629    
     42200   294.91712      2123.3004      115.37941      4356.1649      12951.661      17307.826      8.54193      
     42300   290.81568      2080.6817      98.525991      4320.2296      12771.541      17091.771      7.8646228    
     42400   295.69514      2093.4148      119.5427       4399.0316      12985.829      17384.86       8.2587402    
     42500   292.7545       2078.6263      107.30869      4349.6271      12856.687      17206.314      7.4365859    
     42600   292.22169      2048.398       108.5217       4326.729       12833.288      17160.017      7.6451463    
     42700   296.38532      2063.3239      109.35856      4345.7167      13016.139      17361.856      7.7240699    
     42800   292.51549      2075.4693      108.0258       4287.1048      12846.191      17133.295      7.8159611    
     42900   294.41083      2099.1143      119.79671      4313.7407      12929.427      17243.167      8.2648825    
     43000   292.2845       2079.2086      103.00693      4254.2736      12836.046      17090.32       8.2826894    
     43100   294.98359      2077.5765      111.34786      4271.9691      12954.58       17226.549      8.2102394    
     43200   293.95458      2085.2836      118.02946      4296.3181      12909.39       17205.708      8.5857972    
     43300   291.55107      2083.4649      131.94985      4300.6941      12803.837      17104.531      8.9075792    
     43400   297.17073      2099.8437      110.43878      4314.1009      13050.631      17364.732      7.9335187    
     43500   292.08397      2088.9495      110.70069      4280.4364      12827.24       17107.676      7.4622446    
     43600   295.07609      2095.3518      98.422859      4281.5803      12958.642      17240.223      7.0750098    
     43700   293.31712      2086.6064      105.95607      4268.5824      12881.395      17149.978      7.0952809    
     43800   292.22484      2075.5458      110.78018      4277.6073      12833.426      17111.033      8.0239057    
     43900   294.65848      2073.4075      91.777942      4243.1152      12940.303      17183.418      7.9593854    
     44000   289.39752      2043.4984      112.42826      4241.8109      12709.261      16951.072      8.2321414    
     44100   293.74647      2076.007       121.88015      4295.8984      12900.251      17196.149      8.5459141    
     44200   290.0723       2062.6482      114.1581       4259.2257      12738.895      16998.12       8.600916     
     44300   292.13706      2085.2031      113.66804      4298.8524      12829.571      17128.424      8.5272802    
     44400   292.116        2111.9556      105.44505      4289.3841      12828.647      17118.031      7.8872075    
     44500   291.05944      2111.7512      118.9257       4320.5215      12782.246      17102.768      7.6062792    
     44600   294.31805      2131.0983      111.89364      4355.7966      12925.352      17281.149      7.2448713    
     44700   290.53274      2092.2523      96.767659      4301.6037      12759.115      17060.719      6.5946856    
     44800   293.55728      2083.3664      106.11966      4324.2314      12891.942      17216.173      6.9589671    
     44900   289.84098      2079.9914      118.17041      4273.1564      12728.736      17001.892      7.3788407    
     45000   293.4819       2111.7932      110.1396       4288.8443      12888.632      17177.476      7.5146598    
     45100   293.0031       2132.2346      81.219678      4272.0552      12867.604      17139.66       7.3548305    
     45200   291.52817      2121.1569      117.01608      4306.7713      12802.831      17109.602      8.4229042    
     45300   294.19964      2142.0609      110.26526      4353.8522      12920.152      17274.004      8.5377057    
     45400   290.28594      2099.9772      116.45308      4301.4516      12748.277      17049.729      8.2303487    
     45500   294.79189      2076.0931      108.57399      4256.493       12946.162      17202.655      8.1294391    
     45600   289.95052      2025.2791      117.65444      4181.135       12733.547      16914.682      8.1529262    
     45700   295.48118      2027.4922      108.23185      4214.0702      12976.433      17190.503      8.3190407    
     45800   293.20647      2037.9479      108.1682       4215.2412      12876.536      17091.777      7.7927267    
     45900   291.34224      2050.8588      94.627989      4180.6191      12794.666      16975.285      7.8945588    
     46000   295.03196      2088.2699      111.39815      4250.8167      12956.705      17207.521      7.8736191    
     46100   291.19916      2114.233       96.78833       4241.89        12788.382      17030.272      7.4273822    
     46200   296.25015      2142.6383      120.74488      4317.2457      13010.203      17327.449      7.9252551    
     46300   292.45254      2117.6733      108.71141      4264.2601      12843.426      17107.686      7.7337777    
     46400   293.35512      2098.8336      131.11414      4309.3701      12883.064      17192.434      8.0833204    
     46500   295.32479      2077.4204      101.03626      4292.3322      12969.564      17261.897      7.6522683    
     46600   291.88218      2051.9641      101.95063      4277.8587      12818.378      17096.236      7.8817455    
     46700   294.17506      2059.2515      111.25704      4312.5878      12919.073      17231.66       8.3575041    
     46800   290.08533      2062.3714      108.77986      4270.8592      12739.467      17010.326      8.4321375    
     46900   294.20033      2093.0304      83.939576      4304.5514      12920.182      17224.734      7.9974853    
     47000   292.2856       2093.8093      105.51648      4311.0083      12836.095      17147.103      8.0776821    
     47100   291.33346      2098.1354      99.117477      4306.15        12794.28       17100.43       7.8966159    
     47200   294.87187      2144.8651      122.22252      4353.0625      12949.674      17302.736      7.805313     
     47300   290.65328      2120.8612      116.57824      4315.9762      12764.409      17080.385      7.8807227    
     47400   294.19195      2106.1382      105.05933      4278.775       12919.814      17198.589      7.6439979    
     47500   289.3143       2100.3053      109.375        4267.3317      12705.606      16972.938      7.9182198    
     47600   293.91268      2113.4471      113.81364      4298.5931      12907.55       17206.143      8.2014688    
     47700   292.47613      2103.9567      101.75869      4263.9999      12844.462      17108.462      7.7594889    
     47800   291.45348      2132.4195      101.05041      4280.3856      12799.551      17079.936      7.0798658    
     47900   294.98701      2162.4214      127.90031      4337.3375      12954.731      17292.068      7.4577589    
     48000   290.85131      2136.0804      108.46963      4272.0666      12773.106      17045.173      6.9773874    
     48100   294.11863      2144.1393      99.264946      4295.0685      12916.594      17211.663      7.7158727    
     48200   291.87314      2102.5749      107.65593      4249.3956      12817.981      17067.377      7.9667061    
     48300   292.58494      2095.6236      113.58736      4268.1361      12849.241      17117.377      8.3102191    
     48400   293.56217      2105.9669      98.49391       4296.2338      12892.157      17188.391      8.6061843    
     48500   288.59424      2080.9775      106.09394      4265.872       12673.984      16939.856      8.5980543    
     48600   292.77863      2101.6175      97.017816      4301.7499      12857.746      17159.496      8.5203149    
     48700   292.11909      2102.2877      117.79469      4320.6158      12828.782      17149.398      8.233065     
     48800   290.57709      2100.3022      103.05163      4267.9536      12761.063      17029.017      8.3989657    
     48900   295.04953      2084.1292      100.93248      4271.4636      12957.476      17228.94       8.7168077    
     49000   291.86719      2064.4383      110.56951      4227.5558      12817.72       17045.275      9.1242847    
     49100   295.66515      2101.4406      126.13966      4332.7089      12984.512      17317.221      8.5524933    
     49200   292.58694      2101.3342      96.204727      4275.114       12849.329      17124.443      7.2582775    
     49300   292.11101      2090.353       108.56125      4300.043       12828.427      17128.47       6.9534627    
     49400   292.50857      2067.9061      127.4064       4302.2159      12845.887      17148.103      6.6061464    
     49500   290.58517      2046.2337      112.27214      4254.7912      12761.418      17016.209      5.7531947    
     49600   294.34195      2082.5267      117.83628      4302.7609      12926.402      17229.163      5.6866257    
     49700   290.35433      2088.0671      134.2402       4314.8055      12751.28       17066.086      6.076026     
     49800   297.31691      2129.0986      110.56494      4303.399       13057.051      17360.45       5.9632332    
     49900   293.20217      2111.1543      97.174615      4242.5363      12876.347      17118.883      5.9577022    
     50000   293.72026      2123.1933      118.28563      4275.8377      12899.099      17174.937      6.8561319    
     50100   295.50644      2136.0774      98.102193      4308.5706      12977.542      17286.113      6.7317251    
     50200   291.17695      2141.749       112.5911       4301.897       12787.407      17089.304      7.0719253    
     50300   293.88228      2154.7652      109.45492      4344.7163      12906.215      17250.931      6.785065     
     50400   288.64671      2110.7964      112.44355      4271.1391      12676.288      16947.427      6.9332074    
     50500   293.46531      2118.6552      113.27028      4299.8441      12887.903      17187.747      6.9167384    
     50600   292.14798      2108.5411      106.63151      4253.2009      12830.051      17083.252      7.3172252    
     50700   291.66908      2116.5752      92.711479      4246.1282      12809.019      17055.147      7.4470824    
     50800   293.5445       2139.1677      102.92397      4271.202       12891.381      17162.583      7.3442851    
     50900   292.10007      2115.7646      112.5539       4252.7673      12827.947      17080.714      7.6082759    
     51000   296.39307      2112.8103      101.7007       4262.7103      13016.479      17279.19       7.0396037    
     51100   293.50513      2073.7529      108.41091      4215.3224      12889.652      17104.974      6.8833248    
     51200   293.41109      2092.452       107.38509      4262.7412      12885.522      17148.263      6.5526876    
     51300   295.98157      2116.7526      115.85966      4284.7808      12998.408      17283.189      6.5890371    
     51400   292.3527       2081.7733      111.86979      4214.0825      12839.041      17053.124      5.8723708    
     51500   295.01328      2098.5064      109.11745      4266.8994      12955.884      17222.784      6.0551699    
     51600   291.55723      2092.9701      112.19308      4275.675       12804.107      17079.782      6.3484346    
     51700   293.23536      2121.1274      107.42809      4305.2956      12877.805      17183.1        6.1261746    
     51800   293.31954      2099.1218      113.48073      4283.2667      12881.501      17164.768      6.6010412    
     51900   292.62138      2095.6523      102.08031      4256.162       12850.841      17107.003      6.1293268    
     52000   293.94814      2100.3204      106.26949      4275.7482      12909.107      17184.855      6.4031633    
     52100   291.64739      2101.4518      98.182788      4275.4399      12808.067      17083.507      6.3970289    
     52200   293.07327      2088.6948      106.43017      4279.0617      12870.686      17149.748      7.4474354    
     52300   293.6549       2083.8962      109.10214      4272.7171      12896.229      17168.946      7.1219216    
     52400   291.86453      2099.0027      124.52956      4295.0375      12817.603      17112.64       7.7017908    
     52500   298.65715      2115.4625      112.69797      4300.457       13115.909      17416.366      7.3937865    
     52600   293.32717      2088.4601      112.218        4242.665       12881.837      17124.502      7.5061491    
     52700   292.13094      2113.2585      124.12449      4266.8777      12829.303      17096.18       8.2593891    
     52800   295.11467      2155.6737      126.21406      4337.9404      12960.337      17298.277      8.9938306    
     52900   290.51654      2132.1972      124.33833      4264.1981      12758.404      17022.602      9.2443202    
     53000   293.91006      2147.476       104.53656      4287.892       12907.435      17195.327      9.3340823    
     53100   290.4275       2094.3618      99.743084      4193.9263      12754.494      16948.42       9.2267584    
     53200   294.3302       2094.1891      100.31751      4251.056       12925.886      17176.942      8.9252871    
     53300   294.94151      2062.7493      104.75547      4236.2094      12952.732      17188.942      8.9151351    
     53400   291.69269      2062.944       104.60489      4198.3357      12810.056      17008.392      8.4228917    
     53500   296.31582      2105.6269      106.08763      4268.1297      13013.087      17281.216      8.208308     
     53600   293.15417      2089.4186      104.65348      4237.4252      12874.239      17111.664      7.205585     
     53700   293.72163      2083.805       119.47836      4259.9355      12899.16       17159.095      7.5021731    
     53800   294.40407      2072.605       99.198668      4254.3656      12929.13       17183.496      6.3515301    
     53900   292.98071      2065.2811      101.3709       4272.1552      12866.621      17138.776      6.073618     
     54000   295.07279      2093.5885      113.33668      4322.3169      12958.498      17280.815      6.4209519    
     54100   291.31061      2090.9726      120.56993      4280.6712      12793.277      17073.948      6.7096158    
     54200   293.59873      2108.3301      103.14065      4282.472       12893.762      17176.234      6.6869756    
     54300   293.68375      2125.7172      99.585161      4278.2266      12897.496      17175.723      7.5249072    
     54400   291.22482      2138.5002      123.07502      4292.5835      12789.509      17082.092      8.7267356    
     54500   294.91032      2178.7275      117.50047      4354.7396      12951.362      17306.102      9.3486925    
     54600   291.48595      2130.7607      108.27058      4302.8206      12800.977      17103.797      9.345587     
     54700   295.63977      2143.5785      112.79006      4319.9281      12983.397      17303.325      9.3620615    
     54800   295.37787      2105.5929      113.22737      4272.9351      12971.896      17244.831      10.000119    
     54900   293.34849      2074.7226      105.99762      4213.9886      12882.773      17096.762      9.3176904    
     55000   298.55658      2063.7182      100.92387      4237.0537      13111.493      17348.546      8.6339844    
     55100   293.09687      2030.9951      100.97497      4183.9739      12871.723      17055.697      8.2058829    
     55200   294.47901      2076.9901      108.97225      4265.0681      12932.421      17197.489      8.1655055    
     55300   292.09854      2080.688       114.594        4222.3048      12827.88       17050.184      8.2277252    
     55400   292.53843      2107.4742      107.88951      4244.6271      12847.198      17091.825      8.6393159    
     55500   293.60091      2111.003       114.99552      4246.1631      12893.858      17140.021      8.4946015    
     55600   290.95478      2085.4645      118.79454      4272.8972      12777.65       17050.547      7.9987929    
     55700   295.4796       2104.5485      107.01086      4283.363       12976.363      17259.726      7.3785209    
     55800   291.09722      2084.6363      93.537482      4234.2012      12783.905      17018.106      6.613464     
     55900   293.01809      2080.5125      106.72832      4279.6355      12868.263      17147.898      7.3705793    
     56000   292.34536      2119.5753      110.16005      4286.2493      12838.719      17124.968      6.8986234    
     56100   291.10858      2135.8007      108.97203      4288.0336      12784.404      17072.438      6.5370852    
     56200   294.48975      2164.4997      114.31734      4357.0899      12932.893      17289.982      6.6621718    
     56300   290.54079      2120.6807      110.66614      4303.0398      12759.469      17062.509      6.3602717    
     56400   292.44389      2131.2312      102.91601      4336.2785      12843.046      17179.325      6.4713697    
     56500   292.57518      2101.3921      110.25169      4306.739       12848.812      17155.551      6.9042907    
     56600   290.69389      2085.1292      113.68064      4272.1233      12766.193      17038.316      7.1624429    
     56700   294.7728       2076.3451      103.60852      4280.1148      12945.323      17225.438      7.3993595    
     56800   291.128        2064.9634      98.259751      4239.3175      12785.257      17024.575      7.4071302    
     56900   295.59536      2101.4068      109.85904      4309.3063      12981.447      17290.754      8.4006026    
     57000   291.05688      2091.5441      112.69772      4319.7821      12782.134      17101.916      8.6968407    
     57100   291.21538      2113.1915      119.02628      4378.244       12789.095      17167.338      8.8985613    
     57200   291.46078      2140.4504      102.59161      4401.2612      12799.872      17201.133      8.0662047    
     57300   292.48169      2133.2194      108.13092      4387.5775      12844.706      17232.284      8.1923257    
     57400   292.80483      2124.5387      97.504971      4366.691       12858.897      17225.588      8.262121     
     57500   290.60837      2084.5654      116.8542       4331.0096      12762.437      17093.446      8.2366041    
     57600   295.04088      2101.5987      108.3653       4357.7947      12957.096      17314.891      7.9762075    
     57700   293.18829      2075.5806      98.120782      4286.01        12875.738      17161.748      6.9382784    
     57800   294.35351      2078.5114      124.5903       4272.7461      12926.909      17199.656      7.3433983    
     57900   296.20538      2117.9539      109.71836      4286.0719      13008.237      17294.309      6.4891165    
     58000   292.33774      2084.416       110.46103      4252.2698      12838.384      17090.654      6.2913315    
     58100   295.0021       2106.1786      120.5314       4286.1046      12955.393      17241.498      6.0931515    
     58200   292.19382      2103.3464      106.2163       4304.5847      12832.064      17136.649      5.7754387    
     58300   293.30126      2111.3186      115.81082      4324.345       12880.699      17205.044      6.2855127    
     58400   290.45817      2100.2948      119.91948      4303.1505      12755.841      17058.991      6.5556696    
     58500   292.99094      2106.7767      110.61218      4321.0032      12867.07       17188.074      6.5436215    
     58600   292.76083      2110.7167      108.93949      4323.963       12856.965      17180.928      6.1393765    
     58700   291.00692      2085.4916      113.89827      4306.4691      12779.94       17086.409      6.1851266    
     58800   297.58905      2119.8038      102.70363      4344.0923      13069.002      17413.095      6.1273883    
     58900   291.82237      2104.0111      115.54075      4328.7739      12815.751      17144.525      5.8563029    
     59000   291.11822      2088.8294      100.07347      4282.4049      12784.827      17067.232      5.9826733    
     59100   295.44839      2082.2014      117.06995      4308.453       12974.992      17283.445      6.7696179    
     59200   290.73053      2045.6493      102.93239      4232.4174      12767.802      17000.219      6.7618773    
     59300   294.35774      2080.9072      98.797115      4271.7727      12927.095      17198.868      6.991504     
     59400   288.67515      2052.3864      104.96747      4225.3162      12677.537      16902.853      6.5641673    
     59500   292.58928      2075.1995      117.26226      4264.678       12849.431      17114.109      6.2559612    
     59600   293.32719      2092.6973      107.94525      4254.1088      12881.838      17135.946      6.1637693    
     59700   289.18308      2080.789       97.455955      4236.6652      12699.843      16936.509      6.2501471    
     59800   295.0743       2072.7813      113.9666       4268.0411      12958.564      17226.605      6.7466235    
     59900   290.8996       2047.168       117.13528      4248.5733      12775.227      17023.8        6.7450704    
     60000   296.36932      2065.644       119.47381      4314.9757      13015.436      17330.412      7.286902     
     60100   292.8037       2062.0559      113.02524      4284.0239      12858.848      17142.872      6.7235376    
     60200   292.42826      2069.7768      116.59153      4286.8683      12842.36       17129.228      6.911108     
     60300   297.20192      2083.6895      114.8968       4322.1058      13052.001      17374.107      7.0164149    
     60400   291.86814      2083.5164      101.03225      4286.8405      12817.761      17104.602      7.4598123    
     60500   292.69433      2100.9667      116.04871      4338.9745      12854.044      17193.019      8.2601532    
     60600   293.87536      2102.7711      110.53201      4318.1033      12905.911      17224.014      8.4517851    
     60700   291.4543       2079.7867      103.72641      4258.8979      12799.587      17058.485      7.9967048    
     60800   294.0143       2075.6648      105.76085      4309.9841      12912.013      17221.997      7.9785908    
     60900   293.11496      2048.2418      113.01398      4273.1452      12872.517      17145.662      7.9363446    
     61000   293.37902      2070.7611      107.49724      4265.9409      12884.113      17150.054      7.9193888    
     61100   292.85348      2059.068       106.36271      4244.2979      12861.034      17105.332      7.68527      
     61200   294.42151      2090.2548      96.68236       4281.3978      12929.896      17211.293      7.7532722    
     61300   292.90819      2082.094       111.94449      4290.2918      12863.437      17153.728      8.5252527    
     61400   292.03198      2071.2394      107.59293      4284.9428      12824.957      17109.899      8.0685777    
     61500   292.27717      2102.5959      115.94179      4349.4762      12835.725      17185.201      7.7979456    
     61600   290.30763      2116.3811      115.06071      4381.6666      12749.23       17130.896      7.2203041    
     61700   294.05545      2123.2544      96.744196      4378.0766      12913.82       17291.896      6.7814328    
     61800   290.21166      2088.2416      97.58952       4319.004       12745.015      17064.019      6.6284112    
     61900   294.46929      2108.9615      104.76376      4335.0711      12931.994      17267.065      6.7101758    
     62000   293.92468      2127.6024      109.95622      4333.0084      12908.077      17241.085      7.0023698    
     62100   291.26352      2139.0621      97.731408      4299.7207      12791.209      17090.929      6.896301     
     62200   293.33441      2166.2743      97.11594       4324.1736      12882.155      17206.328      6.5613267    
     62300   291.44573      2142.3263      119.79634      4319.5359      12799.211      17118.747      7.5322875    
     62400   292.38058      2121.5048      92.97411       4274.5915      12840.266      17114.857      7.23221      
     62500   293.67425      2126.3483      107.5808       4305.1797      12897.079      17202.259      7.5162698    
     62600   287.75344      2112.5575      108.17301      4255.9982      12637.059      16893.057      7.6854085    
     62700   292.97487      2142.0887      118.81635      4306.6768      12866.365      17173.042      8.1510241    
     62800   292.83375      2167.195       110.34791      4332.6543      12860.167      17192.822      7.9254508    
     62900   290.63931      2162.5188      99.415779      4351.7906      12763.796      17115.586      7.8399179    
     63000   294.22475      2193.2821      114.2118       4414.9755      12921.255      17336.231      8.0529853    
     63100   289.62739      2152.7722      113.28938      4367.089       12719.356      17086.445      7.8185561    
     63200   292.79634      2141.5929      111.97942      4396.5681      12858.524      17255.093      7.1874864    
     63300   290.24374      2139.2885      109.02898      4366.3538      12746.424      17112.778      6.8992141    
     63400   291.54653      2140.1866      119.69645      4398.8163      12803.638      17202.454      7.1930436    
     63500   292.69863      2126.1393      115.27878      4371.3168      12854.234      17225.55       7.587246     
     63600   291.95587      2143.3999      107.65504      4365.6339      12821.614      17187.248      6.9892482    
     63700   293.80341      2157.6527      117.86054      4410.3155      12902.751      17313.066      6.858736     
     63800   290.78748      2125.7173      116.36359      4347.731       12770.303      17118.034      6.3226868    
     63900   294.301        2151.2105      96.24093       4347.7999      12924.604      17272.403      6.0377341    
     64000   290.41829      2117.7742      107.21114      4304.1938      12754.089      17058.283      6.4117013    
     64100   294.73898      2125.0463      109.76921      4334.5747      12943.838      17278.413      7.0767866    
     64200   293.74668      2103.6888      99.500079      4266.3935      12900.26       17166.653      6.7178975    
     64300   293.21481      2126.8399      103.32589      4279.4361      12876.902      17156.338      7.0982887    
     64400   294.33601      2119.6685      120.79464      4283.9582      12926.141      17210.099      7.3203551    
     64500   291.57046      2134.3165      117.14354      4317.5898      12804.688      17122.278      7.6879513    
     64600   294.07069      2176.7466      117.68913      4410.6968      12914.489      17325.186      7.6335627    
     64700   289.64033      2129.9251      104.72626      4319.6551      12719.924      17039.579      7.5476913    
     64800   294.11764      2133.2167      107.72819      4340.1851      12916.551      17256.736      8.0377881    
     64900   290.10446      2126.2117      103.3085       4272.443       12740.307      17012.75       7.5347042    
     65000   294.05519      2133.8859      95.615098      4274.0118      12913.809      17187.82       7.5191791    
     65100   293.23197      2107.8379      97.818169      4263.1562      12877.656      17140.812      7.5213262    
     65200   293.61424      2114.3547      116.15127      4310.4193      12894.443      17204.863      8.2281885    
     65300   293.83688      2116.7341      116.36798      4340.9844      12904.221      17245.205      8.5909739    
     65400   291.65349      2116.4636      101.71864      4294.9335      12808.335      17103.268      7.8207468    
     65500   294.1917       2121.3779      110.11402      4311.7171      12919.803      17231.521      8.023904     
     65600   288.43477      2117.4145      116.97949      4293.096       12666.98       16960.076      7.997592     
     65700   293.34705      2118.4862      108.3357       4322.2216      12882.71       17204.931      8.2491049    
     65800   293.597        2101.0438      102.65515      4288.1252      12893.686      17181.812      8.1534537    
     65900   291.32593      2071.3124      107.75971      4237.6169      12793.949      17031.566      8.121377     
     66000   295.98126      2106.3693      97.360253      4303.2031      12998.394      17301.597      7.8763808    
     66100   290.88012      2117.5643      116.59793      4317.1726      12774.371      17091.544      7.3021601    
     66200   292.30558      2137.3171      111.02059      4364.01        12836.972      17200.982      7.0370125    
     66300   292.48654      2117.6464      123.49885      4369.6645      12844.919      17214.584      7.8766627    
     66400   288.91156      2098.3824      110.70998      4327.1123      12687.919      17015.032      7.0889118    
     66500   294.66917      2123.0763      113.05381      4354.8347      12940.772      17295.607      7.0699994    
     66600   292.1845       2096.047       115.08585      4292.1688      12831.655      17123.823      7.11733      
     66700   297.08467      2140.5246      97.769942      4333.04        13046.852      17379.892      7.035215     
     66800   292.62198      2147.6135      112.02548      4344.6974      12850.867      17195.565      6.8803359    
     66900   291.15849      2182.8915      94.317455      4380.0715      12786.596      17166.668      6.4926586    
     67000   294.27376      2190.2759      115.36108      4423.5661      12923.407      17346.973      6.65206      
     67100   289.42794      2150.3116      100.84427      4347.6714      12710.597      17058.268      5.582147     
     67200   293.10538      2155.7929      118.48943      4397.7502      12872.096      17269.847      5.889506     
     67300   288.43024      2112.2974      111.2889       4321.8838      12666.782      16988.665      6.0394907    
     67400   292.55957      2130.0101      117.99174      4362.4916      12848.127      17210.618      6.3616584    
     67500   292.1976       2123.848       101.80016      4331.545       12832.23       17163.775      6.1744971    
     67600   289.945        2119.093       106.40699      4314.5256      12733.304      17047.83       6.8521002    
     67700   294.27687      2154.2923      118.02598      4399.0432      12923.544      17322.587      7.1043626    
     67800   291.34708      2125.9669      114.2465       4310.2276      12794.879      17105.106      7.1748354    
     67900   297.53995      2140.2971      115.46934      4347.7959      13066.846      17414.642      7.9181682    
     68000   293.7316       2091.597       108.10411      4263.523       12899.598      17163.121      8.0084212    
     68100   294.80281      2084.7516      103.90834      4249.6454      12946.641      17196.287      8.1030825    
     68200   298.53706      2111.4157      115.99732      4333.8852      13110.636      17444.521      8.2593994    
     68300   291.86706      2115.4031      105.52399      4293.0009      12817.714      17110.715      7.033209     
     68400   295.09573      2133.771       94.735228      4316.5508      12959.505      17276.056      6.7131366    
     68500   289.87694      2103.8211      116.42687      4292.0117      12730.315      17022.327      7.1053022    
     68600   292.6028       2129.9791      106.00708      4334.8427      12850.025      17184.867      6.9829043    
     68700   293.19591      2120.9267      96.628687      4308.8486      12876.072      17184.921      6.9067016    
     68800   287.68006      2106.1519      123.78218      4304.2831      12633.836      16938.12       7.6469323    
     68900   293.1528       2122.2916      122.62846      4352.0642      12874.179      17226.243      7.8162511    
     69000   291.06548      2115.5961      102.60985      4339.5466      12782.511      17122.058      6.9279639    
     69100   290.77277      2118.5681      111.04171      4366.742       12769.657      17136.399      6.8372708    
     69200   292.60041      2131.8603      121.25336      4409.3378      12849.92       17259.258      7.0621359    
     69300   290.63816      2124.5496      109.40652      4358.2581      12763.745      17122.004      6.9584796    
     69400   292.96479      2097.9924      87.090928      4321.4129      12865.922      17187.335      7.0131796    
     69500   291.97864      2055.811       100.47918      4259.7267      12822.614      17082.341      7.8640661    
     69600   291.06542      2055.7861      104.57944      4273.8104      12782.509      17056.319      8.4706815    
     69700   293.64606      2073.829       117.65059      4302.583       12895.841      17198.424      9.0879204    
     69800   290.63978      2091.911       106.49715      4303.2628      12763.816      17067.079      7.8660308    
     69900   294.26565      2149.3489      108.3697       4402.0287      12923.051      17325.08       7.8767152    
     70000   289.31848      2133.6447      119.56287      4375.2086      12705.79       17080.999      7.5228328    
     70100   291.77575      2131.9575      100.02448      4346.7342      12813.704      17160.438      7.1173571    
     70200   291.53693      2096.1159      121.31733      4316.1238      12803.216      17119.34       7.8036279    
     70300   292.23113      2061.5119      119.8761       4237.8345      12833.703      17071.537      8.318307     
     70400   295.28153      2058.7023      108.10826      4235.9961      12967.665      17203.661      8.1277709    
     70500   291.57373      2082.1856      121.12255      4251.8199      12804.832      17056.652      8.0783772    
     70600   296.55755      2095.4568      113.8514       4289.8377      13023.703      17313.54       7.6083133    
     70700   291.13659      2090.021       119.1365       4279.0464      12785.634      17064.681      7.2415796    
     70800   294.24215      2129.7813      101.35232      4305.4898      12922.019      17227.509      6.4921664    
     70900   294.20278      2127.2299      94.750941      4280.5843      12920.29       17200.874      6.3490561    
     71000   291.98584      2088.9506      109.21261      4238.2493      12822.93       17061.179      6.4198657    
     71100   294.60201      2113.5588      110.16991      4313.85        12937.823      17251.673      6.8161103    
     71200   290.12404      2056.3792      112.22357      4209.7957      12741.167      16950.962      6.400989     
     71300   295.14472      2047.3676      98.693526      4198.4571      12961.657      17160.114      6.3833867    
     71400   293.2335       2035.9275      101.88857      4192.9564      12877.723      17070.679      6.3098412    
     71500   291.72658      2037.0194      113.50351      4176.5702      12811.544      16988.115      6.4267778    
     71600   295.38757      2126.6111      97.201549      4256.1637      12972.322      17228.485      6.2495275    
     71700   290.05021      2125.6443      115.03055      4248.547       12737.925      16986.472      6.9629547    
     71800   292.36147      2162.721       112.5286       4276.6119      12839.427      17116.039      7.522293     
     71900   291.44544      2140.8047      124.56664      4259.9228      12799.198      17059.121      7.745082     
     72000   292.97093      2124.4018      119.3737       4252.0454      12866.192      17118.237      8.0401785    
     72100   295.15425      2103.0426      116.20857      4195.4836      12962.075      17157.558      8.2641359    
     72200   292.80731      2052.0938      112.32322      4141.8139      12859.006      17000.82       8.3384272    
     72300   295.16561      2075.2374      119.71324      4187.5327      12962.574      17150.107      8.4828588    
     72400   294.45183      2077.0793      116.12636      4199.405       12931.227      17130.632      8.3995397    
     72500   294.46304      2098.3325      112.04275      4231.5713      12931.72       17163.291      7.7916801    
     72600   293.84098      2094.7495      124.86551      4265.0321      12904.401      17169.433      7.9664307    
     72700   291.46412      2076.6902      111.26989      4219.6455      12800.018      17019.664      7.8380924    
     72800   296.03475      2105.4429      126.02868      4298.1086      13000.743      17298.852      8.2435002    
     72900   293.8309       2079.5171      80.078442      4191.4003      12903.958      17095.359      7.0368789    
     73000   294.26559      2061.9672      110.9233       4212.9229      12923.049      17135.971      7.6519374    
     73100   293.75654      2067.0123      111.21492      4231.0064      12900.693      17131.699      7.913551     
     73200   292.77605      2061.2007      113.25102      4186.3142      12857.633      17043.947      8.3720999    
     73300   296.067        2072.7467      110.88767      4204.898       13002.16       17207.058      8.500896     
     73400   290.43625      2083.4239      115.04014      4216.1318      12754.878      16971.01       8.4594193    
     73500   294.58132      2089.6579      98.730159      4218.3775      12936.914      17155.291      8.2256202    
     73600   290.02922      2115.4447      129.74989      4235.8414      12737.003      16972.844      8.4221957    
     73700   292.95359      2124.7853      115.99215      4268.3975      12865.43       17133.828      8.1921716    
     73800   292.57513      2113.0127      101.20388      4251.042       12848.81       17099.852      8.2831492    
     73900   290.42141      2109.5431      107.45852      4249.2019      12754.226      17003.428      8.1643926    
     74000   295.14158      2099.9876      94.517068      4272.9668      12961.518      17234.485      7.8452112    
     74100   292.11758      2062.158       110.783        4232.3432      12828.716      17061.059      7.9665126    
     74200   294.11591      2062.8329      110.91183      4237.8499      12916.475      17154.325      8.0798292    
     74300   297.41207      2082.3351      116.5768       4257.0157      13061.23       17318.246      8.8509927    
     74400   292.36931      2064.8025      122.98543      4228.3068      12839.771      17068.078      8.8429814    
     74500   295.24641      2052.1056      111.94656      4251.5222      12966.122      17217.644      8.9355805    
     74600   292.71418      2032.0424      104.66166      4213.6285      12854.916      17068.545      8.6739486    
     74700   293.06818      2048.088       108.69997      4228.0993      12870.463      17098.562      8.6793337    
     74800   293.33569      2086.4668      126.80782      4311.9449      12882.211      17194.156      8.9936442    
     74900   291.74392      2096.2882      124.22021      4297.2513      12812.306      17109.557      8.5928075    
     75000   294.21934      2116.9538      101.81185      4283.8454      12921.017      17204.863      8.4280537    
     75100   293.14637      2116.8558      96.938114      4296.8455      12873.896      17170.742      7.7389882    
     75200   290.65668      2145.4386      105.17719      4345.7039      12764.558      17110.262      7.9345151    
     75300   292.72361      2143.5084      118.21022      4384.0298      12855.33       17239.36       7.9016801    
     75400   291.38331      2130.7744      111.92213      4368.58        12796.469      17165.049      7.453483     
     75500   292.15065      2136.3351      109.17513      4373.5328      12830.168      17203.701      7.6062003    
     75600   295.31676      2163.8098      109.14749      4403.728       12969.212      17372.94       7.5961878    
     75700   290.62764      2129.2135      110.39709      4350.8407      12763.283      17114.124      7.4457067    
     75800   293.9859       2143.7989      110.94781      4339.447       12910.766      17250.213      7.3190345    
     75900   295.85829      2176.5507      107.30314      4376.7793      12992.994      17369.773      7.0020213    
     76000   290.70239      2123.0095      135.29014      4313.0511      12766.566      17079.617      7.4035515    
     76100   295.44896      2140.6027      109.96401      4322.7532      12975.018      17297.771      7.4567195    
     76200   288.94804      2133.8184      120.26438      4304.2311      12689.521      16993.752      7.3495951    
     76300   292.58551      2162.5807      110.99155      4323.9369      12849.266      17173.202      7.4887594    
     76400   293.37359      2122.8514      103.74721      4290.8297      12883.875      17174.705      7.7277432    
     76500   290.58543      2097.2397      95.976154      4204.4177      12761.43       16965.847      7.8740542    
     76600   295.15363      2111.3718      125.42967      4288.4436      12962.048      17250.492      8.2902293    
     76700   291.22162      2094.3884      116.38034      4253.7025      12789.369      17043.071      8.379915     
     76800   296.36591      2134.345       109.79231      4304.2466      13015.287      17319.533      8.5783002    
     76900   292.02292      2138.0363      126.55862      4308.789       12824.559      17133.348      8.7582803    
     77000   292.23828      2144.05        97.720911      4293.6965      12834.017      17127.713      8.1822743    
     77100   297.7122       2168.8028      77.019107      4328.423       13074.41       17402.833      7.2248004    
     77200   291.77693      2104.8152      102.44183      4280.1176      12813.756      17093.873      6.9859032    
     77300   294.07184      2099.4082      119.1293       4304.719       12914.54       17219.259      7.1179307    
     77400   291.73599      2117.4385      104.02307      4299.2867      12811.958      17111.245      6.2598456    
     77500   292.47647      2111.1505      93.177519      4291.7902      12844.477      17136.267      6.3398224    
     77600   294.39981      2111.4895      106.53495      4291.1443      12928.943      17220.087      6.7901025    
     77700   291.23571      2133.9783      113.38976      4296.2327      12789.987      17086.22       7.1206879    
     77800   290.93253      2140.4586      110.16553      4283.7621      12776.673      17060.435      7.4377405    
     77900   294.22183      2147.2831      111.97719      4296.3525      12921.126      17217.479      8.0307896    
     78000   290.51705      2123.9477      112.9362       4251.0266      12758.426      17009.453      8.0788617    
     78100   296.62641      2129.2689      111.20027      4305.2794      13026.727      17332.006      8.6106336    
     78200   291.33674      2099.3117      118.39662      4262.6718      12794.424      17057.096      8.5269127    
     78300   294.38318      2126.6352      114.2306       4315.4964      12928.212      17243.709      8.3624737    
     78400   290.62796      2130.5444      114.43883      4283.5801      12763.297      17046.877      7.8406271    
     78500   291.914        2130.499       117.11404      4317.2116      12819.775      17136.987      7.8374271    
     78600   292.30967      2133.8299      126.2779       4313.9411      12837.152      17151.093      7.1736643    
     78700   290.28938      2125.7428      127.24644      4279.401       12748.428      17027.829      7.0638502    
     78800   292.66238      2151.7426      99.208297      4294.4684      12852.641      17147.11       7.0465862    
     78900   292.37889      2136.7699      98.919958      4271.893       12840.192      17112.085      7.4405571    
     79000   291.18893      2109.7349      117.506        4280.1421      12787.933      17068.075      7.8760734    
     79100   294.77073      2105.4021      121.61478      4294.9077      12945.232      17240.14       8.071509     
     79200   292.33601      2080.5951      106.73678      4260.0166      12838.309      17098.325      8.058658     
     79300   293.32652      2068.0198      95.313463      4256.0599      12881.808      17137.868      8.175316     
     79400   291.86259      2090.6545      103.90785      4279.5825      12817.518      17097.1        8.1460693    
     79500   292.68307      2067.434       103.35246      4247.0138      12853.55       17100.564      7.5889538    
     79600   295.14669      2087.0968      99.673252      4261.5299      12961.743      17223.273      7.5045914    
     79700   290.34851      2089.7821      105.02855      4275.5694      12751.025      17026.594      7.0342614    
     79800   292.4177       2138.7604      113.3916       4344.5833      12841.896      17186.479      7.1222852    
     79900   287.64662      2126.4214      106.51222      4298.6506      12632.368      16931.019      7.1236679    
     80000   292.4822       2154.3165      95.214001      4288.461       12844.728      17133.189      6.901427     
     80100   293.44452      2151.677       100.7752       4291.411       12886.99       17178.401      7.5127892    
     80200   289.9032       2112.706       102.99046      4243.9424      12731.469      16975.411      8.2191259    
     80300   295.36724      2127.6476      110.12651      4288.6589      12971.429      17260.087      8.3386822    
     80400   292.5          2076.3858      102.00798      4224.7258      12845.51       17070.236      8.1996856    
     80500   293.88886      2098.1428      91.139089      4272.0108      12906.504      17178.515      7.9637505    
     80600   296.50727      2100.3742      102.33198      4329.2888      13021.495      17350.783      8.0201485    
     80700   290.57675      2097.7276      101.64314      4324.6515      12761.048      17085.7        8.2393213    
     80800   292.3755       2129.6375      96.40704       4364.125       12840.043      17204.168      8.268899     
     80900   290.26816      2146.9927      91.494646      4357.3241      12747.496      17104.82       8.3427467    
     81000   290.23078      2142.2146      106.81098      4365.1823      12745.854      17111.037      8.5184122    
     81100   293.2511       2112.0864      119.40263      4336.6455      12878.496      17215.141      8.1528008    
     81200   288.88191      2034.5242      112.02612      4222.8556      12686.617      16909.473      7.751443     
     81300   295.43082      2048.8374      99.265146      4218.0585      12974.221      17192.279      7.8852271    
     81400   293.02698      2050.6698      107.87403      4224.3845      12868.653      17093.038      8.0799763    
     81500   293.16089      2083.1316      97.071321      4255.442       12874.534      17129.976      7.8346197    
     81600   294.12491      2102.1447      108.79454      4299.8652      12916.87       17216.735      8.0257434    
     81700   291.9246       2102.4825      98.908522      4254.4311      12820.241      17074.672      7.5827244    
     81800   294.17619      2114.5509      118.96094      4296.8101      12919.122      17215.932      8.2868214    
     81900   289.57439      2090.9963      96.31438       4270.4356      12717.029      16987.464      7.8297645    
     82000   294.8467       2090.8927      94.68641       4272.4493      12948.569      17221.018      7.974111     
     82100   292.05956      2090.153       107.42207      4282.1308      12826.168      17108.298      8.5803491    
     82200   293.47377      2083.6856      110.66392      4256.8612      12888.275      17145.136      8.4042675    
     82300   293.56902      2074.4635      112.56949      4266.9435      12892.458      17159.401      8.2839171    
     82400   291.98314      2079.2811      105.66741      4257.6002      12822.812      17080.412      7.9537768    
     82500   293.82582      2106.4314      121.73284      4304.358       12903.735      17208.093      8.3735341    
     82600   289.51764      2091.3479      112.71155      4246.743       12714.536      16961.279      7.8984437    
     82700   293.32854      2131.9881      110.21459      4317.2713      12881.896      17199.168      8.1586331    
     82800   290.1701       2098.3809      98.093376      4244.5611      12743.19       16987.751      7.7019201    
     82900   293.82442      2083.361       103.47948      4225.1616      12903.674      17128.835      7.6719524    
     83000   294.47584      2065.3636      130.07915      4228.9302      12932.282      17161.212      7.8702809    
     83100   292.55018      2066.8917      99.327709      4205.0744      12847.714      17052.788      6.5286745    
     83200   296.07239      2099.2287      105.32013      4275.4025      13002.396      17277.799      6.5891242    
     83300   292.23348      2085.2719      108.94591      4254.2297      12833.806      17088.036      6.0124353    
     83400   296.22637      2105.0179      117.48581      4329.3826      13009.158      17338.541      6.333877     
     83500   291.60462      2082.9712      118.14359      4301.7611      12806.188      17107.949      6.7707464    
     83600   293.49903      2057.9215      113.16007      4316.7866      12889.384      17206.17       6.9159044    
     83700   293.39278      2054.4873      96.314023      4295.0991      12884.718      17179.817      7.0028306    
     83800   290.88384      2070.5793      107.31721      4329.7906      12774.535      17104.325      7.0296469    
     83900   294.51848      2061.1182      98.145731      4302.682       12934.154      17236.836      7.4232745    
     84000   292.18745      2050.8184      96.867554      4284.9782      12831.784      17116.762      7.2200525    
     84100   295.58342      2124.1328      114.33523      4394.26        12980.923      17375.183      8.162913     
     84200   290.54397      2118.6247      128.70237      4385.9865      12759.609      17145.595      8.4263323    
     84300   292.34838      2142.0233      99.235846      4388.4603      12838.852      17227.312      8.0665251    
     84400   292.82186      2157.5441      95.741433      4389.3504      12859.645      17248.996      8.0512278    
     84500   290.58668      2124.7063      112.8551       4355.553       12761.485      17117.038      7.9177668    
     84600   294.00816      2104.3839      108.71083      4382.6292      12911.743      17294.372      7.8746845    
     84700   290.43539      2086.1105      125.71959      4349.8128      12754.84       17104.653      7.6445634    
     84800   298.01887      2136.379       107.4477       4409.2129      13087.879      17497.092      7.3821181    
     84900   293.43298      2101.652       96.729047      4333.7381      12886.483      17220.221      7.608197     
     85000   291.16305      2110.5816      119.03769      4332.1607      12786.796      17118.957      8.0157159    
     85100   294.25154      2142.997       130.32259      4372.8027      12922.432      17295.234      8.3821558    
     85200   288.8127       2131.8838      119.34182      4338.6291      12683.578      17022.207      7.6918628    
     85300   292.79843      2158.8648      109.48802      4368.8757      12858.616      17227.492      7.4430162    
     85400   291.09083      2137.336       90.482951      4328.4126      12783.625      17112.037      6.7731916    
     85500   290.33397      2084.9441      105.11002      4293.4635      12750.386      17043.85       6.6937152    
     85600   294.6156       2092.3959      97.57832       4272.353       12938.419      17210.772      6.6072718    
     85700   292.33628      2065.4745      115.98543      4236.531       12838.32       17074.851      6.9443959    
     85800   295.71931      2073.2571      89.290307      4222.9722      12986.89       17209.863      6.3745673    
     85900   295.07815      2083.2773      106.49011      4244.4351      12958.733      17203.168      6.4248778    
     86000   292.5807       2100.2193      114.59405      4272.5436      12849.054      17121.598      6.4845358    
     86100   293.8278       2125.2581      114.86778      4295.8694      12903.822      17199.692      6.6542593    
     86200   290.81642      2126.1356      100.95793      4292.8021      12771.574      17064.376      6.8192438    
     86300   293.23649      2133.3338      116.88905      4340.9272      12877.854      17218.781      7.2850956    
     86400   293.21628      2124.953       110.92192      4309.9853      12876.967      17186.952      7.7482688    
     86500   293.14018      2103.1221      113.62543      4295.064       12873.625      17168.689      8.0369098    
     86600   296.25868      2097.752       115.66722      4311.2966      13010.577      17321.874      7.8664437    
     86700   292.0962       2077.6284      92.593242      4247.2336      12827.777      17075.011      7.3678125    
     86800   294.99838      2098.2867      118.93222      4274.3698      12955.23       17229.6        7.7483782    
     86900   292.41982      2101.344       86.800912      4255.455       12841.989      17097.444      7.0492453    
     87000   292.05787      2103.1542      118.26056      4315.689       12826.093      17141.782      6.9338188    
     87100   293.69407      2108.2003      95.824081      4307.9929      12897.949      17205.942      6.093743     
     87200   286.90839      2052.7992      130.82371      4279.5546      12599.947      16879.502      6.727459     
     87300   294.57361      2093.6827      117.43071      4306.6258      12936.576      17243.201      7.1835295    
     87400   291.97625      2081.5922      100.56504      4244.1895      12822.509      17066.698      7.2557497    
     87500   293.84576      2098.2236      123.2468       4287.4717      12904.611      17192.083      7.5269854    
     87600   294.066        2074.9815      114.08908      4286.3189      12914.283      17200.602      7.5987559    
     87700   292.11767      2065.3868      99.662683      4269.6289      12828.72       17098.349      7.3609326    
     87800   296.02989      2081.3447      128.08991      4355.5408      13000.53       17356.071      7.2854252    
     87900   291.60555      2058.0837      103.47461      4291.5565      12806.229      17097.786      6.6799076    
     88000   292.85694      2058.5502      115.39934      4317.9621      12861.186      17179.148      7.1842433    
     88100   292.87324      2092.9061      107.77117      4324.6318      12861.902      17186.534      7.0611106    
     88200   290.39525      2083.9156      105.52191      4282.8062      12753.077      17035.883      7.6033512    
     88300   293.66033      2111.3681      112.78285      4303.6527      12896.468      17200.12       8.3037665    
     88400   292.80181      2095.1358      103.15729      4262.4799      12858.765      17121.245      8.3671282    
     88500   293.34923      2097.6624      116.45619      4300.7082      12882.805      17183.513      8.1550149    
     88600   293.9166       2078.8128      120.893        4316.9166      12907.722      17224.639      8.1679478    
     88700   290.72003      2065.7428      112.24247      4305.1886      12767.341      17072.529      7.6300875    
     88800   293.37443      2069.8256      115.0449       4359.2252      12883.912      17243.137      7.2942465    
     88900   292.12022      2058.1843      105.42097      4303.2595      12828.832      17132.091      6.9593569    
     89000   293.90432      2089.7022      99.86962       4307.898       12907.183      17215.081      6.5542539    
     89100   293.46988      2073.8034      109.15241      4322.6546      12888.104      17210.758      6.7742404    
     89200   292.39929      2087.7617      115.50259      4300.731       12841.088      17141.819      7.5184931    
     89300   293.95188      2076.3559      126.87631      4296.1027      12909.272      17205.374      7.8424897    
     89400   290.1499       2079.9135      100.03558      4272.2012      12742.303      17014.504      7.6657363    
     89500   294.22107      2111.4447      112.56409      4358.6498      12921.093      17279.743      8.2241871    
     89600   291.00865      2111.535       127.2948       4369.8598      12780.016      17149.876      8.0903638    
     89700   292.72205      2093.119       108.88347      4306.9574      12855.262      17162.219      6.896641     
     89800   292.38074      2099.3451      94.083835      4299.9742      12840.273      17140.247      6.2456868    
     89900   291.88721      2090.3172      116.21836      4324.2738      12818.599      17142.873      6.3702721    
     90000   294.72738      2093.8821      100.50444      4289.5918      12943.329      17232.92       6.2670094    
     90100   290.6691       2084.6593      102.72439      4231.5765      12765.104      16996.681      6.1200647    
     90200   294.71017      2132.1773      113.21736      4306.4687      12942.573      17249.041      5.9857914    
     90300   292.15255      2128.4412      108.24624      4258.6314      12830.252      17088.883      6.1315746    
     90400   296.27312      2133.7043      101.38829      4294.5635      13011.212      17305.775      6.5362949    
     90500   294.33087      2102.1306      108.23772      4261.6727      12925.915      17187.588      6.561924     
     90600   293.95331      2107.3704      117.66012      4279.4285      12909.334      17188.763      7.2923709    
     90700   298.32797      2124.2368      110.46727      4307.4618      13101.453      17408.915      7.2614234    
     90800   292.5344       2100.527       111.11144      4296.3014      12847.021      17143.322      7.8586074    
     90900   293.32351      2121.0475      107.00334      4353.7814      12881.676      17235.457      8.0434492    
     91000   291.84065      2137.2878      105.62077      4372.5173      12816.554      17189.071      8.2413363    
     91100   291.24001      2104.9504      124.07234      4342.9137      12790.176      17133.09       8.3898511    
     91200   293.93886      2097.4702      100.07749      4303.8853      12908.7        17212.585      8.0508833    
     91300   292.18422      2092.3741      112.57023      4303.9478      12831.642      17135.59       8.3368006    
     91400   299.22464      2139.034       120.35478      4329.4203      13140.831      17470.252      8.0348747    
     91500   292.63219      2114.5297      106.13232      4259.6194      12851.316      17110.935      7.519145     
     91600   294.24076      2138.6388      105.31806      4287.2183      12921.958      17209.176      7.8071612    
     91700   293.11336      2148.4948      117.2063       4322.4077      12872.447      17194.854      7.5526017    
     91800   291.01293      2150.7515      117.00454      4308.2159      12780.203      17088.419      6.9948977    
     91900   294.44781      2160.8587      104.98011      4315.2199      12931.051      17246.271      6.6047905    
     92000   288.13519      2151.4639      99.073024      4298.2459      12653.824      16952.07       6.1455689    
     92100   291.76857      2168.2187      102.48341      4348.6919      12813.389      17162.081      6.0256835    
     92200   292.38506      2169.7314      96.96053       4395.6403      12840.463      17236.103      5.9771933    
     92300   288.40573      2144.3878      128.27723      4415.5733      12665.705      17081.279      6.3814747    
     92400   294.05344      2148.009       99.949133      4401.8386      12913.732      17315.57       6.2672443    
     92500   291.86075      2127.8214      105.08818      4347.0506      12817.437      17164.488      6.311645     
     92600   291.73717      2127.1438      118.83222      4338.0883      12812.01       17150.098      7.137868     
     92700   295.53975      2149.4582      129.22935      4395.4163      12979.005      17374.421      7.8348762    
     92800   292.11206      2140.8316      108.74989      4318.2247      12828.474      17146.698      7.2489136    
     92900   292.91822      2133.1773      110.37412      4316.487       12863.877      17180.364      7.1416729    
     93000   294.4169       2157.9356      121.03986      4346.0931      12929.693      17275.786      7.2012034    
     93100   290.43913      2115.3091      110.8029       4285.866       12755.005      17040.871      6.2245293    
     93200   294.28409      2139.5694      109.30863      4316.605       12923.861      17240.466      6.2829305    
     93300   292.39004      2134.2755      114.20326      4291.6628      12840.681      17132.344      6.2039574    
     93400   293.80418      2136.9838      101.19892      4255.6171      12902.785      17158.402      6.0193989    
     93500   293.43604      2102.7271      106.48154      4248.4631      12886.618      17135.081      6.3483012    
     93600   291.62287      2085.0214      106.39195      4249.675       12806.99       17056.665      6.9470047    
     93700   294.56349      2116.2834      103.63575      4334.2938      12936.131      17270.425      7.3897247    
     93800   291.17828      2121.9703      100.68611      4325.4857      12787.465      17112.951      7.7455735    
     93900   297.01824      2174.4527      104.5794       4395.3142      13043.935      17439.249      7.9249023    
     94000   291.18502      2149.3162      103.28618      4341.2503      12787.761      17129.012      7.8200875    
     94100   290.73251      2148.0061      127.20216      4371.5941      12767.889      17139.483      8.3055485    
     94200   293.98404      2153.7942      106.34662      4359.5814      12910.684      17270.265      7.9452575    
     94300   290.29366      2108.3736      113.50898      4317.4389      12748.616      17066.055      7.9677597    
     94400   294.69272      2091.5159      105.8453       4281.0033      12941.806      17222.81       8.1928581    
     94500   289.76642      2078.4113      113.44688      4225.7926      12725.462      16951.254      8.0400041    
     94600   293.66269      2089.1378      113.35183      4238.4359      12896.571      17135.007      7.9538573    
     94700   293.6999       2087.3367      108.96236      4237.4634      12898.206      17135.669      7.8268378    
     94800   290.74466      2108.1906      108.22219      4226.6999      12768.422      16995.122      7.5938057    
     94900   294.15958      2138.5524      101.99657      4294.7007      12918.393      17213.094      7.8150804    
     95000   291.19912      2117.1253      101.37253      4255.1133      12788.38       17043.494      7.7966548    
     95100   294.64768      2125.6158      113.20671      4337.8272      12939.829      17277.656      8.0756541    
     95200   291.85623      2099.7329      118.18693      4312.0208      12817.238      17129.259      7.7923516    
     95300   292.35585      2112.4914      105.55191      4311.5151      12839.18       17150.695      7.1685271    
     95400   292.77829      2110.0479      112.96694      4326.151       12857.732      17183.883      6.7561701    
     95500   290.05936      2087.7776      116.77023      4286.629       12738.326      17024.955      6.3037418    
     95600   292.73554      2098.4088      117.77458      4292.6722      12855.854      17148.526      6.3777958    
     95700   293.05668      2109.4729      108.21415      4288.5509      12869.957      17158.508      6.067837     
     95800   292.22662      2097.2186      105.78524      4253.4477      12833.504      17086.952      6.2025658    
     95900   295.11595      2117.4902      105.70008      4274.2713      12960.393      17234.664      5.9581318    
     96000   292.27596      2106.1807      111.75538      4235.4883      12835.671      17071.16       5.8540966    
     96100   296.72366      2125.8936      122.26988      4299.7101      13030.998      17330.708      5.8926806    
     96200   291.75793      2088.9968      114.95061      4239.1255      12812.921      17052.047      5.8350606    
     96300   294.40234      2099.9347      101.76168      4269.9084      12929.054      17198.962      5.6595036    
     96400   292.82319      2092.4484      98.478891      4280.289       12859.703      17139.992      6.2151557    
     96500   290.752        2086.6473      94.469274      4280.5242      12768.745      17049.269      6.3898641    
     96600   294.24305      2080.6968      110.38876      4301.6612      12922.058      17223.72       6.8291675    
     96700   289.73232      2058.2103      115.79609      4266.8079      12723.964      16990.772      7.4078712    
     96800   293.49915      2098.3791      96.573183      4307.5638      12889.389      17196.953      7.3075541    
     96900   292.42191      2089.1961      83.86145       4309.7901      12842.081      17151.871      7.4131781    
     97000   291.15078      2077.223       108.09372      4316.4608      12786.257      17102.718      8.1667124    
     97100   293.96593      2106.5412      110.62457      4366.8023      12909.889      17276.691      8.4060824    
     97200   291.11671      2101.5878      98.586106      4302.7613      12784.762      17087.523      8.0601189    
     97300   293.36981      2101.9268      121.80669      4327.4459      12883.709      17211.155      8.4196848    
     97400   291.49269      2068.5517      106.69861      4274.4835      12801.273      17075.757      8.3158641    
     97500   294.19647      2048.5636      106.55468      4260.2877      12920.013      17180.3        8.5247361    
     97600   293.47983      2066.1027      101.64696      4281.0199      12888.541      17169.56       8.3503866    
     97700   291.45683      2090.5453      112.37738      4291.5567      12799.698      17091.255      8.5060444    
     97800   292.72201      2117.0055      106.88024      4294.2301      12855.26       17149.49       8.7214774    
     97900   289.64442      2094.9042      97.022167      4249.8944      12720.104      16969.998      8.1106515    
     98000   295.06946      2115.772       98.543171      4281.6476      12958.351      17239.999      7.6443791    
     98100   292.81566      2062.7767      105.90723      4230.5086      12859.373      17089.881      7.373617     
     98200   294.48618      2060.7127      111.9099       4218.8539      12932.736      17151.59       7.1525759    
     98300   294.66754      2039.8586      101.47538      4177.4501      12940.7        17118.15       6.3442447    
     98400   293.43439      2041.962       105.83798      4181.8153      12886.545      17068.36       5.7415895    
     98500   296.56994      2066.8005      130.83477      4232.3775      13024.247      17256.625      6.075881     
     98600   291.19429      2062.5857      115.74149      4195.0645      12788.169      16983.233      5.4527941    
     98700   293.60898      2094.9014      109.69818      4250.2059      12894.212      17144.418      5.4200838    
     98800   292.1825       2057.9997      109.2736       4222.5764      12831.567      17054.143      5.6357328    
     98900   291.42409      2049.1532      105.24211      4207.9996      12798.26       17006.26       5.6200734    
     99000   294.11377      2077.2478      96.319772      4252.9712      12916.381      17169.352      5.8581227    
     99100   290.8739       2052.8063      106.24059      4204.9736      12774.098      16979.072      6.5489189    
     99200   294.52881      2088.6577      102.81343      4276.4627      12934.608      17211.071      6.3325914    
     99300   291.57086      2088.6178      127.62455      4294.2248      12804.706      17098.931      7.0579273    
     99400   293.43482      2050.2341      118.02614      4269.9279      12886.564      17156.492      6.6413928    
     99500   295.1287       2050.3656      110.02587      4281.3812      12960.953      17242.334      6.5014101    
     99600   291.87112      2036.8279      98.357732      4244.3483      12817.892      17062.241      6.3774831    
     99700   296.17801      2038.4734      113.09091      4276.96        13007.035      17283.995      6.8109174    
     99800   290.3508       2036.084       114.57233      4256.8898      12751.126      17008.015      6.9698988    
     99900   293.18342      2065.1447      104.824        4297.427       12875.524      17172.951      6.6600679    
    100000   289.5598       2058.5123      135.26748      4300.8786      12716.387      17017.266      7.2853946    
    100100   290.54685      2068.4598      120.39406      4297.7715      12759.735      17057.507      7.5200622    
    100200   292.48826      2084.3128      113.83742      4312.0979      12844.995      17157.092      7.7142199    
    100300   289.72669      2049.2507      125.23274      4257.8491      12723.717      16981.566      8.1427648    
    100400   293.19783      2091.7771      114.89711      4309.132       12876.157      17185.288      8.3944019    
    100500   293.11546      2089.4164      79.383823      4257.6344      12872.539      17130.173      8.070162     
    100600   294.73975      2086.5102      112.46124      4298.1141      12943.872      17241.986      8.7495812    
    100700   294.59235      2098.3056      113.01473      4311.6389      12937.399      17249.037      8.5663748    
    100800   292.46828      2091.286       94.372243      4292.9321      12844.117      17137.049      7.3217235    
    100900   296.25653      2128.2727      121.38426      4370.9879      13010.483      17381.471      8.3105021    
    101000   292.63119      2092.3057      105.18534      4281.473       12851.272      17132.745      8.146315     
    101100   293.81074      2087.3631      111.6869       4283.3857      12903.073      17186.459      8.7507149    
    101200   294.58625      2092.5518      103.38133      4267.6055      12937.131      17204.736      8.7425118    
    101300   292.34802      2068.3215      103.90277      4235.4776      12838.836      17074.314      8.6924084    
    101400   294.29054      2077.6821      123.81478      4270.6443      12924.144      17194.789      8.5101773    
    101500   293.05513      2087.0551      116.62322      4252.7018      12869.889      17122.591      8.3371606    
    101600   293.60986      2096.4048      102.17569      4252.3124      12894.251      17146.564      7.6492026    
    101700   292.43265      2114.8585      105.42152      4278.4529      12842.553      17121.006      7.8530851    
    101800   289.36048      2100.1663      108.61623      4282.4498      12707.634      16990.084      7.6087564    
    101900   295.16873      2099.8544      112.02424      4297.0557      12962.711      17259.767      7.2447459    
    102000   291.65918      2058.5873      115.06869      4250.7148      12808.584      17059.299      7.3674221    
    102100   293.07865      2069.2884      101.41134      4238.9197      12870.922      17109.842      7.2742249    
    102200   293.44818      2090.3374      91.795103      4239.0152      12887.151      17126.166      7.077556     
    102300   290.01128      2093.0401      116.40454      4260.9195      12736.215      16997.134      7.3147434    
    102400   293.98063      2131.4075      106.92893      4328.5549      12910.534      17239.089      6.7765046    
    102500   290.83923      2074.1648      109.84413      4286.2135      12772.575      17058.789      7.0665435    
    102600   291.76469      2054.2571      125.74583      4303.1993      12813.218      17116.418      7.5373374    
    102700   293.37625      2030.8985      107.66894      4248.5972      12883.992      17132.589      7.8083312    
    102800   289.72412      2042.0882      130.39848      4258.9399      12723.604      16982.544      8.9188946    
    102900   294.46171      2048.8673      109.04798      4238.5004      12931.661      17170.161      8.5304724    
    103000   291.42976      2049.6005      99.679992      4220.5972      12798.509      17019.107      8.2533141    
    103100   294.96683      2095.3723      121.25416      4340.7698      12953.844      17294.614      7.8805359    
    103200   290.76075      2094.6854      116.57576      4282.9779      12769.129      17052.107      7.3812916    
    103300   292.93797      2103.3966      109.99663      4247.9553      12864.744      17112.7        7.0696633    
    103400   295.40634      2070.6976      122.6315       4237.6475      12973.146      17210.793      7.7472486    
    103500   291.78892      2047.9473      108.14346      4174.3287      12814.282      16988.611      7.6162277    
    103600   295.69875      2048.2265      119.36842      4238.8171      12985.987      17224.804      7.6447449    
    103700   293.82865      2015.925       109.1612       4195.9274      12903.86       17099.787      8.0341892    
    103800   293.6003       2033.2731      114.7135       4208.621       12893.831      17102.452      8.2280293    
    103900   295.12999      2047.6359      108.88216      4247.9006      12961.01       17208.91       8.2810812    
    104000   290.32053      2026.1909      117.51187      4204.3079      12749.796      16954.104      8.3630044    
    104100   294.45056      2065.7773      106.30535      4265.6561      12931.172      17196.828      7.6581621    
    104200   292.08445      2083.4124      113.25525      4284.7615      12827.261      17112.023      7.5335627    
    104300   294.54887      2105.2408      111.66211      4330.3501      12935.489      17265.839      7.0081718    
    104400   292.27994      2061.9347      102.92419      4288.1725      12835.846      17124.019      7.1380031    
    104500   292.6258       2070.5282      100.37989      4284.1147      12851.035      17135.15       7.3493089    
    104600   292.93589      2091.7618      121.31446      4332.4414      12864.653      17197.094      7.7786365    
    104700   290.01085      2063.0887      104.87584      4267.9294      12736.196      17004.126      8.1142305    
    104800   294.09117      2084.6457      111.64258      4307.2394      12915.388      17222.628      8.5656208    
    104900   290.79716      2084.0555      98.542726      4250.1871      12770.728      17020.915      8.3569346    
    105000   296.14123      2117.0603      101.57753      4325.7307      13005.42       17331.15       7.8420372    
    105100   291.03734      2099.5769      96.222928      4285.8532      12781.276      17067.129      7.5923731    
    105200   293.82221      2092.4015      107.24916      4276.7746      12903.577      17180.351      8.07894      
    105300   293.40514      2080.8509      101.75403      4254.4978      12885.261      17139.759      7.6361887    
    105400   292.08173      2080.0088      103.54538      4260.5077      12827.141      17087.649      7.1499013    
    105500   294.70385      2083.9964      119.89985      4293.2203      12942.295      17235.515      7.3526422    
    105600   289.82088      2077.7736      118.95906      4275.8137      12727.853      17003.667      7.2949484    
    105700   295.33535      2114.8936      112.39612      4331.1851      12970.028      17301.213      6.8713819    
    105800   291.04994      2090.9922      106.13312      4297.3256      12781.829      17079.155      6.9878296    
    105900   294.55587      2082.6059      117.84865      4308.0194      12935.797      17243.816      7.2222789    
    106000   292.91474      2080.5722      86.049419      4274.5812      12863.724      17138.305      6.6074121    
    106100   292.60608      2095.5848      114.14235      4308.7021      12850.169      17158.871      7.1445602    
    106200   291.7767       2111.6038      125.0558       4328.1005      12813.746      17141.846      7.4034783    
    106300   291.23905      2082.8597      104.84435      4243.169       12790.134      17033.303      6.8976182    
    106400   294.77559      2080.2784      100.32223      4235.7475      12945.446      17181.193      7.1358481    
    106500   291.6856       2048.062       117.98873      4226.3678      12809.745      17036.113      7.4986168    
    106600   296.48084      2087.2301      112.49499      4268.7121      13020.334      17289.046      7.7278131    
    106700   292.21117      2086.8151      111.51752      4242.7952      12832.826      17075.621      7.3346832    
    106800   293.87557      2085.9492      106.63106      4228.8134      12905.92       17134.734      6.9902517    
    106900   294.42399      2102.0961      114.33815      4259.0425      12930.005      17189.047      7.2665879    
    107000   290.5871       2103.6007      106.08289      4269.359       12761.503      17030.862      7.1072441    
    107100   293.71098      2104.7072      101.43951      4323.9021      12898.692      17222.594      7.2862212    
    107200   291.00574      2111.8491      113.86668      4337.1845      12779.888      17117.072      7.7092173    
    107300   292.40482      2102.6306      108.54869      4317.5429      12841.33       17158.873      7.5044552    
    107400   292.8159       2101.8876      110.42974      4328.6435      12859.384      17188.027      7.3744243    
    107500   292.70353      2067.9372      118.90128      4312.7558      12854.449      17167.204      7.3661229    
    107600   292.10696      2086.6641      114.5661       4320.0135      12828.249      17148.263      6.8055636    
    107700   293.931        2120.6743      118.16479      4388.228       12908.354      17296.582      6.6757538    
    107800   289.70263      2117.1654      106.85422      4348.2402      12722.66       17070.9        6.7855923    
    107900   293.14052      2144.0905      113.9445       4367.8811      12873.639      17241.52       7.0928238    
    108000   288.017        2120.9656      114.83645      4323.6414      12648.634      16972.275      6.7635072    
    108100   292.64979      2115.4762      102.83468      4299.1612      12852.088      17151.25       6.5083643    
    108200   292.8178       2117.7664      107.36003      4311.7104      12859.467      17171.177      7.065919     
    108300   289.54576      2065.3459      112.45957      4250.6716      12715.771      16966.443      7.5133888    
    108400   295.31291      2105.969       105.45275      4293.2503      12969.043      17262.293      7.5639784    
    108500   292.19693      2073.0538      99.97671       4242.0161      12832.201      17074.217      7.2431977    
    108600   296.27487      2113.3446      110.79482      4310.7895      13011.288      17322.078      7.6328318    
    108700   292.74948      2113.9454      100.75608      4256.7851      12856.466      17113.251      7.343342     
    108800   292.28987      2120.4185      117.92747      4266.7212      12836.282      17103.003      7.7299435    
    108900   295.32351      2117.729       105.45247      4304.1175      12969.508      17273.626      7.5718184    
    109000   291.6471       2078.5627      100.26971      4230.2212      12808.054      17038.275      7.8251482    
    109100   294.60082      2083.0307      118.27152      4283.7879      12937.771      17221.558      8.5757559    
    109200   290.09224      2046.3779      99.392824      4212.8647      12739.77       16952.635      8.1071888    
    109300   294.23316      2038.174       111.5254       4223.5216      12921.624      17145.146      8.7331043    
    109400   293.42522      2062.1997      98.947778      4203.3445      12886.143      17089.487      8.1722461    
    109500   292.4243       2102.8174      90.989001      4260.0494      12842.186      17102.235      7.7711594    
    109600   293.45823      2124.7399      106.64074      4324.9867      12887.592      17212.579      8.4086998    
    109700   290.62485      2128.0016      98.504252      4311.9495      12763.161      17075.11       7.9853696    
    109800   292.40639      2141.1159      102.58504      4358.26        12841.399      17199.659      7.6949436    
    109900   289.57444      2105.8439      110.88295      4304.6659      12717.03       17021.696      8.1873653    
    110000   294.1855       2085.7418      99.576473      4270.3761      12919.531      17189.907      8.5244677    
    110100   293.76065      2059.1132      120.02926      4267.7801      12900.873      17168.654      8.9616659    
    110200   293.75783      2055.0732      99.802465      4202.3547      12900.749      17103.104      8.2844434    
    110300   296.32322      2088.9429      114.60372      4262.0829      13013.412      17275.495      8.6649654    
    110400   291.41106      2100.3047      97.224593      4230.503       12797.688      17028.191      8.1714167    
    110500   295.31475      2141.9559      120.36248      4300.2445      12969.124      17269.368      9.0773032    
    110600   289.59115      2115.3138      119.77007      4224.478       12717.764      16942.242      8.6651918    
    110700   294.11571      2139.8704      128.5309       4290.1222      12916.466      17206.588      8.4189814    
    110800   291.72012      2125.0503      111.68532      4299.519       12811.261      17110.78       8.2190648    
    110900   292.83181      2117.1682      110.1589       4302.7066      12860.082      17162.789      7.9025008    
    111000   293.21727      2100.3183      101.61666      4306.178       12877.01       17183.188      8.1527932    
    111100   291.85024      2080.5867      93.505123      4296.1918      12816.975      17113.167      8.004873     
    111200   297.47728      2112.571       124.52191      4386.3757      13064.094      17450.47       8.4369359    
    111300   291.66989      2140.9728      122.52732      4367.4534      12809.055      17176.509      8.0367241    
    111400   291.99438      2115.57        106.10912      4299.0877      12823.305      17122.393      7.6639697    
    111500   295.80175      2117.7703      110.95952      4321.1708      12990.511      17311.682      7.7552033    
    111600   291.38451      2084.4226      96.500009      4234.0565      12796.522      17030.579      7.4476969    
    111700   294.69466      2086.5993      104.64663      4274.0506      12941.892      17215.942      7.4211308    
    111800   293.63613      2066.0426      112.10845      4242.6184      12895.405      17138.023      7.5151078    
    111900   293.61827      2061.0623      107.46834      4232.8936      12894.62       17127.514      6.8983568    
    112000   293.8638       2104.4891      94.807261      4242.0056      12905.403      17147.409      6.6140425    
    112100   288.92856      2102.8724      109.53865      4223.1675      12688.666      16911.834      7.0544934    
    112200   293.80163      2139.1918      102.80094      4272.1758      12902.673      17174.849      7.2290923    
    112300   290.63875      2111.3235      108.96083      4245.1341      12763.771      17008.905      7.683566     
    112400   294.94202      2109.6996      113.62064      4274.0605      12952.755      17226.815      7.8787974    
    112500   292.47529      2104.264       119.70515      4252.2942      12844.425      17096.719      7.8164592    
    112600   293.44859      2094.7258      112.07629      4242.3922      12887.169      17129.561      8.2031995    
    112700   297.8194       2156.7647      98.822184      4318.273       13079.119      17397.392      8.0549346    
    112800   291.39764      2122.0415      100.54776      4301.4058      12797.099      17098.505      7.9369086    
    112900   293.57011      2151.8098      102.4363       4345.2879      12892.506      17237.794      7.3035998    
    113000   292.03654      2149.0804      100.46281      4307.2041      12825.157      17132.361      6.6072017    
    113100   290.78182      2165.4969      117.26381      4354.7332      12770.054      17124.787      7.0793933    
    113200   293.37287      2179.5823      105.69957      4371.6936      12883.843      17255.537      7.0577084    
    113300   288.21852      2154.7619      100.62761      4306.1912      12657.484      16963.675      7.2833947    
    113400   294.62563      2146.14        108.14036      4328.5935      12938.86       17267.453      7.9354909    
    113500   291.95098      2092.2676      104.26349      4248.2889      12821.399      17069.688      8.2012044    
    113600   296.28451      2128.0846      109.30153      4300.6472      13011.712      17312.359      8.5491205    
    113700   293.4825       2108.5975      116.11156      4301.6184      12888.658      17190.276      8.4777624    
    113800   293.13521      2083.7097      116.31805      4295.6113      12873.406      17169.018      8.2993831    
    113900   297.37423      2128.4113      108.4837       4335.1067      13059.568      17394.675      7.8536099    
    114000   291.5303       2090.5216      119.12175      4296.4117      12802.925      17099.336      7.7804958    
    114100   294.29205      2101.3395      121.63337      4349.8209      12924.211      17274.031      7.8983294    
    114200   290.80548      2077.51        104.28419      4254.6905      12771.093      17025.784      7.4199582    
    114300   294.12492      2094.7508      92.016158      4289.891       12916.871      17206.762      7.6906874    
    114400   293.03147      2142.2963      107.73382      4332.7136      12868.85       17201.564      7.9933923    
    114500   288.92526      2111.1082      104.00679      4266.631       12688.521      16955.152      7.5473226    
    114600   293.57922      2137.0455      109.46289      4323.8295      12892.905      17216.735      7.7290051    
    114700   292.34264      2114.3611      117.02416      4289.4505      12838.6        17128.05       7.7122179    
    114800   293.45936      2090.5079      106.20926      4267.3253      12887.642      17154.967      7.6224785    
    114900   294.67887      2114.222       115.33105      4303.0823      12941.198      17244.28       7.4235619    
    115000   292.33827      2100.1137      116.16141      4268.2142      12838.408      17106.622      7.2631833    
    115100   295.55316      2142.1211      104.26046      4278.3008      12979.594      17257.895      7.3098058    
    115200   291.44351      2149.918       115.88496      4291.2755      12799.113      17090.389      7.8412883    
    115300   292.19697      2165.0519      107.82554      4311.5943      12832.202      17143.797      7.6621737    
    115400   293.19477      2142.8731      88.853222      4296.9411      12876.022      17172.963      7.5227761    
    115500   286.86624      2112.7447      99.526474      4251.6729      12598.096      16849.769      7.5709985    
    115600   294.32155      2119.1603      96.634147      4262.7628      12925.506      17188.269      7.1704276    
    115700   291.65324      2096.4126      104.60542      4253.5731      12808.324      17061.897      7.5458867    
    115800   294.35562      2089.9536      109.4335       4248.5448      12927.002      17175.547      7.6990319    
    115900   292.94549      2097.931       99.974625      4265.6439      12865.074      17130.718      7.6699611    
    116000   291.24337      2124.7711      106.25804      4320.0337      12790.324      17110.357      7.9539489    
    116100   294.55966      2142.6353      110.83844      4314.346       12935.963      17250.309      8.1054753    
    116200   289.97504      2118.7448      100.15043      4264.5763      12734.624      16999.2        7.58717      
    116300   294.3975       2153.1149      89.307451      4313.6814      12928.842      17242.523      7.0893297    
    116400   291.41808      2148.5232      117.43167      4339.7125      12797.997      17137.709      7.4099654    
    116500   293.1719       2109.062       108.22397      4292.2892      12875.018      17167.307      7.8770862    
    116600   296.09167      2110.5854      100.92457      4349.1856      13003.243      17352.429      8.2802914    
    116700   290.93456      2079.8844      105.58746      4302.6876      12776.762      17079.449      8.7065018    
    116800   295.05515      2092.4465      92.735402      4311.8051      12957.723      17269.528      8.6239812    
    116900   289.1871       2077.9546      106.89491      4298.6894      12700.02       16998.709      8.4628484    
    117000   291.62777      2127.9351      105.24009      4375.0992      12807.205      17182.305      7.9630211    
    117100   291.44601      2130.9606      95.925784      4367.2182      12799.223      17166.441      6.6859601    
    117200   287.09055      2089.6334      115.70263      4309.9478      12607.947      16917.895      7.1152507    
    117300   293.46203      2112.4346      107.09825      4349.2448      12887.759      17237.004      7.3557196    
    117400   290.58636      2130.6836      104.70409      4336.5059      12761.471      17097.976      6.8691486    
    117500   294.42994      2122.8113      106.1964       4336.0175      12930.266      17266.283      7.4554325    
    117600   293.85408      2117.6643      102.48442      4291.243       12904.976      17196.219      7.7864472    
    117700   292.45899      2121.5882      110.19953      4311.0737      12843.709      17154.783      8.0717338    
    117800   296.79453      2155.3671      109.74045      4338.4041      13034.11       17372.514      8.4711343    
    117900   292.69492      2133.2433      115.7889       4352.6372      12854.07       17206.708      8.7557849    
    118000   293.74797      2135.6116      108.47464      4363.1389      12900.317      17263.455      8.2337266    
    118100   292.73245      2124.0876      119.20912      4382.117       12855.718      17237.836      8.5818012    
    118200   290.22467      2130.5091      116.8626       4388.8038      12745.586      17134.39       8.2378325    
    118300   293.33031      2164.1603      104.52193      4406.4765      12881.975      17288.451      7.9809973    
    118400   288.19291      2160.3189      109.12491      4365.6649      12656.359      17022.024      7.6001215    
    118500   293.83058      2196.5213      96.52426       4407.0894      12903.944      17311.034      7.5038388    
    118600   291.30355      2162.1636      120.72155      4407.0742      12792.966      17200.041      8.2785767    
    118700   294.04354      2146.1218      106.31293      4357.4192      12913.297      17270.716      8.2994448    
    118800   294.59459      2138.6361      107.87052      4369.8312      12937.497      17307.328      7.977503     
    118900   292.01664      2130.1919      101.9584       4348.3725      12824.283      17172.655      7.500548     
    119000   293.82166      2132.5028      106.67704      4391.3729      12903.553      17294.926      7.4151006    
    119100   287.43549      2140.473       104.79957      4373.4404      12623.096      16996.536      6.6027353    
    119200   292.10714      2172.1801      98.237871      4424.5281      12828.257      17252.785      6.087363     
    119300   291.8026       2173.0414      103.59961      4431.3818      12814.883      17246.265      6.4332653    
    119400   288.97743      2160.1053      101.4709       4393.9831      12690.812      17084.795      5.895118     
    119500   295.07564      2173.8741      109.10732      4389.331       12958.623      17347.954      6.2807196    
    119600   292.21808      2128.6467      110.79927      4330.3357      12833.129      17163.465      6.6762694    
    119700   297.83776      2146.0214      110.6009       4360.0487      13079.925      17439.974      7.436316     
    119800   293.86944      2134.4961      103.29315      4347.5622      12905.651      17253.213      7.7447494    
    119900   293.66983      2121.8249      103.87517      4307.019       12896.885      17203.904      7.7525221    
    120000   296.87422      2156.9186      109.52022      4374.3495      13037.61       17411.959      8.1355247    
    120100   291.4815       2155.1389      99.666436      4321.7439      12800.782      17122.526      7.9961668    
    120200   295.0683       2163.9758      101.70826      4338.5444      12958.301      17296.845      7.7779046    
    120300   289.13028      2151.1257      113.15836      4322.4994      12697.525      17020.024      8.0347433    
    120400   293.08631      2162.8746      102.26654      4341.4629      12871.259      17212.722      7.7133484    
    120500   294.13478      2156.0188      89.712182      4302.2096      12917.304      17219.514      7.6697287    
    120600   288.95373      2119.3303      112.86615      4259.1923      12689.771      16948.963      8.0909172    
    120700   295.1984       2147.5882      114.70885      4323.7857      12964.014      17287.8        8.5477248    
    120800   291.44566      2130.2219      109.85066      4271.5931      12799.207      17070.801      8.1650389    
    120900   296.04047      2152.0073      116.3816       4308.8077      13000.994      17309.802      8.215169     
    121000   294.44008      2140.2049      105.1583       4274.9521      12930.711      17205.664      8.0232659    
    121100   293.55058      2119.3062      100.16321      4268.5772      12891.648      17160.225      7.3886613    
    121200   297.91021      2133.2545      103.85653      4311.2576      13083.107      17394.364      7.0510985    
    121300   292.66791      2122.2845      112.80609      4307.133       12852.884      17160.017      6.6715809    
    121400   294.05749      2174.1021      108.51032      4381.4163      12913.909      17295.326      6.6070999    
    121500   290.52544      2188.7999      94.803018      4393.0066      12758.795      17151.802      6.5663593    
    121600   292.83523      2219.2259      87.151981      4416.2096      12860.232      17276.442      6.5088282    
    121700   292.59108      2193.1805      118.27606      4405.2387      12849.51       17254.749      7.1933884    
    121800   292.97887      2161.7918      99.35771       4352.8804      12866.541      17219.421      7.15686      
    121900   297.33821      2156.6645      97.217054      4351.3985      13057.986      17409.385      6.9071505    
    122000   292.4741       2117.4724      124.8153       4321.5557      12844.373      17165.929      7.5032695    
    122100   296.60335      2147.3541      113.15228      4335.5198      13025.714      17361.234      7.4952243    
    122200   293.93018      2139.9027      104.523        4305.8088      12908.318      17214.127      7.4796591    
    122300   293.89353      2153.2935      99.579125      4293.418       12906.709      17200.127      7.5119538    
    122400   295.52262      2169.3835      115.20329      4313.1414      12978.252      17291.394      7.5487837    
    122500   292.15353      2146.9377      90.676723      4213.9169      12830.295      17044.211      7.3402686    
    122600   296.58537      2145.1812      98.115878      4243.3346      13024.925      17268.259      7.4021433    
    122700   292.01614      2118.2463      115.76996      4243.4353      12824.261      17067.696      7.1884863    
    122800   294.90852      2133.6512      113.71432      4304.5231      12951.284      17255.807      6.940853     
    122900   293.97661      2168.2159      107.73389      4300.4194      12910.358      17210.777      6.79503      
    123000   292.73271      2155.1597      99.558769      4311.8698      12855.73       17167.6        6.0179533    
    123100   295.74087      2166.4226      102.21768      4348.9014      12987.837      17336.738      6.0834261    
    123200   292.56243      2148.0298      109.53705      4338.4281      12848.252      17186.68       6.5417747    
    123300   293.62936      2178.2751      109.52818      4392.4549      12895.107      17287.562      7.4076759    
    123400   293.71072      2185.167       119.41375      4415.7827      12898.681      17314.463      7.7004594    
    123500   291.86751      2168.5333      98.260644      4337.4055      12817.734      17155.139      7.447434     
    123600   295.1966       2167.539       121.09399      4371.4538      12963.935      17335.388      8.2133768    
    123700   291.37731      2108.7492      113.22218      4287.3271      12796.206      17083.533      7.8356444    
    123800   294.51526      2108.4854      115.91797      4311.6183      12934.013      17245.631      7.920174     
    123900   292.51912      2142.4948      113.22669      4374.4336      12846.35       17220.784      7.9758229    
    124000   291.52148      2154.9503      123.19183      4399.2585      12802.537      17201.796      7.8356045    
    124100   292.59745      2175.3661      99.844564      4376.2921      12849.79       17226.082      8.1614207    
    124200   291.308        2160.1698      105.30303      4367.2388      12793.162      17160.401      8.217943     
    124300   292.79818      2136.311       102.31829      4349.8684      12858.605      17208.474      8.3976603    
    124400   294.1469       2123.2392      103.64632      4337.0079      12917.836      17254.844      8.7279973    
    124500   290.5843       2113.9416      99.236891      4321.2645      12761.38       17082.644      8.2608499    
    124600   293.46632      2124.5654      116.99469      4350.9123      12887.948      17238.86       8.3374093    
    124700   291.65476      2112.3292      99.657539      4326.9804      12808.391      17135.371      7.3599637    
    124800   294.66845      2151.0878      125.98362      4433.953       12940.741      17374.693      7.9067661    
    124900   289.95966      2157.6125      110.01016      4424.1863      12733.948      17158.134      7.7290086    
    125000   290.21076      2181.8003      131.16681      4455.9138      12744.976      17200.889      8.4981517    
    125100   293.39283      2176.7767      120.71936      4437.8357      12884.72       17322.556      8.3473431    
    125200   289.77177      2149.5798      120.82801      4379.9941      12725.697      17105.691      8.244015     
    125300   294.57428      2152.1304      111.43626      4367.1943      12936.605      17303.799      8.3346269    
    125400   290.86385      2113.4332      97.214521      4293.5123      12773.657      17067.169      8.3847624    
    125500   292.24735      2107.5922      117.95565      4333.8329      12834.415      17168.248      9.0013069    
    125600   293.73722      2133.2902      106.31774      4330.7158      12899.845      17230.56       9.2050095    
    125700   288.98205      2146.336       110.91971      4315.0241      12691.015      17006.039      8.7593664    
    125800   293.76368      2171.3023      106.27136      4327.3903      12901.006      17228.397      8.4649956    
    125900   291.786        2139.0951      108.67053      4277.5818      12814.154      17091.736      8.0836968    
    126000   296.38344      2151.0229      102.9332       4309.504       13016.056      17325.56       7.6397063    
    126100   293.69099      2086.3031      102.76016      4222.4795      12897.814      17120.294      7.044187     
    126200   294.47723      2054.2449      121.58759      4225.7183      12932.343      17158.061      7.1814203    
    126300   295.57954      2047.5613      96.667716      4186.7339      12980.752      17167.486      6.9785822    
    126400   291.84951      2076.471       108.51581      4231.3775      12816.943      17048.321      7.6079734    
    126500   294.13365      2122.6675      97.794762      4305.023       12917.254      17222.277      7.3250823    
    126600   289.01746      2108.7553      95.797571      4274.7955      12692.57       16967.366      6.7968798    
    126700   293.70519      2129.4011      99.971977      4341.8957      12898.438      17240.333      7.4402731    
    126800   291.70812      2101.4068      104.5997       4292.1444      12810.734      17102.878      7.3421322    
    126900   293.45716      2086.9881      103.50464      4294.9228      12887.545      17182.468      7.1728423    
    127000   295.7984       2080.0018      103.76694      4269.2961      12990.364      17259.66       7.3295761    
    127100   293.53598      2057.452       99.002649      4235.5997      12891.007      17126.607      6.7325467    
    127200   293.6548       2107.2252      124.16498      4329.6839      12896.225      17225.909      6.9406575    
    127300   291.17897      2147.9893      104.16376      4363.1642      12787.496      17150.66       6.2291599    
    127400   289.85729      2159.299       114.39452      4382.2522      12729.452      17111.704      6.350039     
    127500   292.29028      2162.781       121.12074      4376.4808      12836.3        17212.781      6.4973873    
    127600   288.2594       2118.1361      99.120469      4294.0551      12659.279      16953.334      6.1409247    
    127700   293.86796      2120.172       108.1104       4327.095       12905.586      17232.681      6.441566     
    127800   291.44958      2088.4661      115.34017      4263.6203      12799.38       17063          6.2268557    
    127900   295.41232      2109.2249      115.83208      4314.6625      12973.409      17288.071      6.6412084    
    128000   293.65352      2114.9332      114.9923       4292.8229      12896.169      17188.992      6.5492765    
    128100   293.4227       2127.6123      116.53572      4288.6608      12886.032      17174.692      7.007095     
    128200   295.78141      2150.4344      108.468        4317.7568      12989.618      17307.375      7.0755744    
    128300   292.28552      2133.2242      117.36606      4297.3239      12836.091      17133.415      7.8717997    
    128400   295.53653      2124.9929      107.89829      4260.7363      12978.863      17239.6        7.9047154    
    128500   294.65658      2097.879       111.80723      4233.6002      12940.219      17173.819      7.8818474    
    128600   293.87514      2079.9589      114.94651      4212.5834      12905.901      17118.485      7.6955933    
    128700   294.92784      2109.4947      123.2409       4274.9164      12952.132      17227.048      7.6202801    
    128800   293.12559      2126.5945      124.32068      4299.231       12872.984      17172.215      7.8896175    
    128900   292.11886      2131.1453      118.16806      4326.2009      12828.772      17154.973      8.1752924    
    129000   294.69824      2144.5637      104.95757      4328.3153      12942.049      17270.364      7.3280204    
    129100   290.9123       2121.5493      110.44989      4280.2896      12775.785      17056.074      7.3731077    
    129200   294.46641      2136.1196      126.57123      4310.6252      12931.868      17242.493      7.8259343    
    129300   293.98263      2126.873       116.12214      4294.4519      12910.622      17205.074      7.772692     
    129400   292.23084      2134.6486      119.02706      4285.8466      12833.69       17119.536      7.0922182    
    129500   295.14199      2141.0612      111.99163      4322.5161      12961.537      17284.053      7.1720071    
    129600   291.66555      2109.4697      109.1526       4251.9952      12808.864      17060.859      7.1959881    
    129700   293.70927      2124.102       107.39464      4276.5244      12898.617      17175.141      6.7876866    
    129800   294.02117      2127.5734      112.63154      4273.5272      12912.314      17185.841      7.2361886    
    129900   292.8514       2124.3927      111.57922      4290.8638      12860.943      17151.807      7.2404771    
    130000   295.23305      2144.3784      112.55667      4350.838       12965.536      17316.374      7.6744888    
    130100   291.18376      2150.2993      110.9514       4353.4933      12787.706      17141.199      7.9726284    
    130200   292.47804      2166.7469      99.165581      4348.4786      12844.546      17193.024      7.6436583    
    130300   293.25912      2167.5398      116.02436      4356.2035      12878.848      17235.051      7.7473756    
    130400   291.00498      2148.7231      115.0898       4303.2275      12779.855      17083.082      7.7580531    
    130500   294.37068      2141.0588      114.0786       4302.2311      12927.664      17229.895      7.6280855    
    130600   290.59603      2113.5534      106.02432      4243.764       12761.895      17005.659      7.1468981    
    130700   297.64179      2123.9233      112.18949      4286.1459      13071.319      17357.465      7.8176503    
    130800   292.02878      2093.4002      96.385992      4216.682       12824.816      17041.498      6.7196382    
    130900   293.83432      2125.6488      105.07345      4293.1174      12904.109      17197.226      6.5575993    
    131000   293.41043      2126.0421      102.93698      4269.6085      12885.493      17155.102      6.456608     
    131100   291.45375      2123.6086      120.2536       4301.95        12799.563      17101.513      6.932282     
    131200   292.94163      2128.507       110.77833      4312.5365      12864.905      17177.442      7.2162083    
    131300   288.54266      2111.0084      110.8444       4280.5671      12671.719      16952.286      7.2021744    
    131400   294.45609      2100.2293      119.15034      4299.9444      12931.414      17231.359      7.7712379    
    131500   292.48347      2096.1605      102.5146       4259.8495      12844.784      17104.634      7.073572     
    131600   293.10783      2081.4942      114.69986      4231.6438      12872.204      17103.848      7.8629622    
    131700   295.83507      2100.7769      103.68475      4250.8755      12991.974      17242.85       7.0737804    
    131800   291.34004      2102.1801      117.04259      4247.2969      12794.569      17041.866      7.5314944    
    131900   293.13517      2107.8574      106.91129      4292.5078      12873.405      17165.912      7.773247     
    132000   291.67902      2105.6049      113.39018      4277.2624      12809.456      17086.718      8.5328571    
    132100   292.27858      2109.6456      109.43376      4284.181       12835.786      17119.967      8.8083207    
    132200   292.18774      2104.3548      116.38887      4254.9349      12831.797      17086.732      9.2468069    
    132300   290.35706      2101.9892      112.13727      4223.5744      12751.4        16974.975      9.1904231    
    132400   294.79724      2118.4909      111.4855       4257.4798      12946.397      17203.876      9.008901     
    132500   291.77062      2102.9035      89.584359      4203.5763      12813.479      17017.055      8.053033     
    132600   293.52596      2097.9191      96.862223      4204.5377      12890.566      17095.104      7.9299427    
    132700   292.34629      2080.5065      128.27954      4209.7897      12838.76       17048.55       8.1681575    
    132800   292.73986      2077.2435      96.459457      4168.6025      12856.044      17024.646      7.2833918    
    132900   294.82201      2092.0606      104.25241      4228.5692      12947.484      17176.054      7.3028044    
    133000   292.46608      2064.7941      98.305327      4209.7556      12844.021      17053.776      6.8452179    
    133100   298.65594      2067.7432      106.9481       4272.5959      13115.856      17388.452      7.1101229    
    133200   293.28668      2033.6735      101.71421      4202.7407      12880.058      17082.799      6.3714657    
    133300   294.20985      2052.0926      113.78349      4224.5164      12920.601      17145.117      6.0198223    
    133400   295.56485      2055.9014      108.86287      4204.6846      12980.107      17184.792      6.1833123    
    133500   291.697        2076.1723      122.52547      4242.0513      12810.246      17052.297      6.5452194    
    133600   293.96121      2100.875       111.92379      4292.6016      12909.681      17202.283      6.8644331    
    133700   288.63356      2100.0395      114.37503      4246.2079      12675.711      16921.919      6.987449     
    133800   294.96218      2115.1992      115.90147      4279.7321      12953.64       17233.372      7.2978607    
    133900   291.05243      2096.4447      111.76464      4229.9713      12781.939      17011.91       7.290575     
    134000   295.52192      2095.3881      113.72586      4264.8044      12978.222      17243.026      7.6362921    
    134100   293.64805      2089.6689      118.02394      4232.8289      12895.928      17128.757      7.4880212    
    134200   293.51025      2078.3006      105.3679       4207.5187      12889.877      17097.395      7.5015719    
    134300   293.7098       2114.8294      106.5577       4284.1323      12898.64       17182.773      7.6216548    
    134400   290.034        2120.2307      114.0967       4302.5223      12737.213      17039.735      8.0349098    
    134500   292.37202      2134.9519      129.1064       4337.0769      12839.89       17176.967      8.563895     
    134600   292.92698      2135.0191      107.05686      4312.8802      12864.262      17177.142      8.1501163    
    134700   291.86765      2111.4431      120.35533      4271.4193      12817.74       17089.159      7.9844799    
    134800   295.88525      2086.9051      101.41349      4244.1938      12994.178      17238.372      7.3202885    
    134900   294.55203      2070.937       96.118538      4194.5983      12935.628      17130.226      7.4908893    
    135000   293.7292       2088.7168      109.34889      4200.4259      12899.492      17099.918      7.8236874    
    135100   295.43648      2095.5213      114.86249      4223.7115      12974.47       17198.181      8.0928075    
    135200   292.67016      2081.7539      112.14922      4162.715       12852.983      17015.698      7.6289015    
    135300   295.5711       2107.7418      115.11234      4221.0512      12980.382      17201.433      7.0984206    
    135400   291.18583      2070.5467      113.6511       4180.7652      12787.797      16968.562      7.4634552    
    135500   294.08046      2078.167       110.78791      4225.6856      12914.918      17140.604      7.6344777    
    135600   293.14244      2092.7785      107.90758      4269.9038      12873.724      17143.628      7.405667     
    135700   293.406        2114.9102      94.32826       4297.1201      12885.298      17182.418      7.1718739    
    135800   292.829        2144.1169      146.42438      4383.9364      12859.959      17243.895      7.7860904    
    135900   291.30194      2125.2215      100.53446      4289.3411      12792.896      17082.237      6.7220566    
    136000   293.73553      2148.6615      117.78436      4331.8682      12899.77       17231.638      7.5361565    
    136100   289.06518      2131.5502      112.78433      4278.5945      12694.666      16973.26       7.6493049    
    136200   292.33649      2135.3624      111.12046      4313.723       12838.329      17152.052      7.951418     
    136300   293.43476      2127.3588      110.40134      4317.3482      12886.561      17203.909      8.0014496    
    136400   290.02638      2102.3864      93.017398      4267.4422      12736.878      17004.321      7.1852475    
    136500   294.97874      2127.1174      107.26753      4324.7208      12954.368      17279.088      6.8637524    
    136600   291.88679      2093.0915      107.1383       4285.9311      12818.581      17104.512      6.7585944    
    136700   292.7066       2074.2615      104.06403      4295.1084      12854.583      17149.692      6.6188924    
    136800   298.22216      2114.0722      113.86157      4357.3649      13096.806      17454.171      6.6797366    
    136900   293.19395      2088.6825      104.71527      4258.7835      12875.986      17134.769      6.6302102    
    137000   295.48797      2062.1017      109.87834      4248.4359      12976.731      17225.167      7.3316274    
    137100   294.46038      2065.9484      99.085592      4204.3176      12931.603      17135.921      7.5060197    
    137200   293.37876      2094.1851      111.00822      4247.7159      12884.102      17131.818      7.2540902    
    137300   294.74436      2135.7665      115.10092      4280.5271      12944.074      17224.602      7.1411694    
    137400   290.64301      2103.8741      116.63984      4207.3385      12763.958      16971.297      6.670053     
    137500   293.94662      2126.369       102.59759      4240.054       12909.041      17149.095      6.3815394    
    137600   293.7067       2123.5761      124.47244      4279.2233      12898.504      17177.727      6.5135233    
    137700   290.46983      2093.0821      105.39585      4225.9696      12756.353      16982.322      6.0203224    
    137800   295.24504      2085.7685      104.52824      4266.2403      12966.062      17232.302      6.2702186    
    137900   292.8576       2048.7036      94.465344      4208.2482      12861.215      17069.463      6.1883751    
    138000   296.84855      2064.0112      117.30438      4256.8911      13036.483      17293.374      7.1484084    
    138100   293.67457      2061.4205      111.99011      4205.0426      12897.093      17102.135      7.1434784    
    138200   292.87701      2091.6374      130.19062      4259.349       12862.067      17121.416      7.8481339    
    138300   297.50156      2136.9386      94.09071       4309.5685      13065.16       17374.729      7.3296128    
    138400   290.15788      2145.276       124.39164      4327.4739      12742.653      17070.127      7.951556     
    138500   292.45111      2165.0163      98.270654      4347.1521      12843.363      17190.515      7.6547457    
    138600   289.29613      2163.6242      112.48701      4385.7148      12704.808      17090.523      8.3131648    
    138700   289.92374      2171.3877      99.998718      4403.219       12732.371      17135.59       8.3985044    
    138800   291.61284      2150.0362      94.580261      4384.6014      12806.55       17191.151      8.7311173    
    138900   290.50322      2116.8363      102.03248      4355.9392      12757.819      17113.758      8.8782746    
    139000   295.0108       2121.698       108.5451       4388.3948      12955.775      17344.17       9.3094756    
    139100   290.66916      2122.3788      112.75908      4336.8983      12765.106      17102.005      8.5069678    
    139200   293.74214      2158.4215      115.95683      4347.0851      12900.06       17247.145      8.5253066    
    139300   290.08285      2141.0234      102.7017       4311.2967      12739.358      17050.655      8.1465868    
    139400   293.27724      2145.2513      111.0224       4338.5121      12879.644      17218.156      8.1783621    
    139500   293.02719      2143.705       99.939273      4334.4702      12868.662      17203.133      7.9292001    
    139600   291.02942      2138.9824      98.778326      4349.9827      12780.928      17130.911      7.4905005    
    139700   295.28966      2131.776       103.28673      4359.0231      12968.022      17327.045      7.6024745    
    139800   290.26676      2116.5102      108.04581      4346.5016      12747.435      17093.936      6.9140527    
    139900   293.2763       2151.1264      120.9532       4400.8648      12879.603      17280.467      7.4603332    
    140000   286.71164      2136.5987      115.3694       4364.2361      12591.307      16955.543      7.8031205    
    140100   292.24928      2165.5131      100.53088      4424.5194      12834.499      17259.019      8.3226387    
    140200   290.12514      2161.6902      107.76801      4445.3984      12741.215      17186.614      8.675653     
    140300   289.49554      2134.7989      99.883219      4393.0554      12713.566      17106.621      8.6766414    
    140400   292.01138      2140.1536      107.38653      4427.1146      12824.052      17251.166      9.2547609    
    140500   290.56973      2098.9243      100.28887      4344.7108      12760.74       17105.451      8.8043501    
    140600   297.28755      2107.3571      96.575878      4372.4735      13055.762      17428.235      9.1936066    
    140700   291.97731      2092.7694      102.87087      4304.753       12822.556      17127.309      8.4017707    
    140800   292.96139      2111.7071      103.55804      4319.2735      12865.773      17185.046      8.1858035    
    140900   291.63316      2132.1617      93.089467      4352.6342      12807.442      17160.076      7.7048893    
    141000   289.95222      2149.8235      109.96519      4403.071       12733.621      17136.692      8.0263308    
    141100   291.93505      2161.7881      121.22538      4425.1608      12820.7        17245.86       7.8625602    
    141200   290.36245      2147.548       121.27844      4397.8426      12751.637      17149.48       7.7506098    
    141300   293.19898      2120.2936      123.85541      4336.1307      12876.207      17212.337      7.6413535    
    141400   292.88618      2071.1517      119.47841      4265.4767      12862.47       17127.947      7.5669868    
    141500   290.69884      2075.1695      113.56521      4264.94        12766.41       17031.35       7.6369163    
    141600   295.80587      2089.946       108.98708      4280.1773      12990.692      17270.869      7.7770407    
    141700   291.51524      2071.8549      108.23159      4232.9255      12802.263      17035.189      8.0326241    
    141800   293.61363      2086.3104      99.848114      4251.1659      12894.417      17145.583      7.6239282    
    141900   292.55564      2100.8718      99.941387      4277.1985      12847.954      17125.152      7.5399852    
    142000   290.08696      2103.7915      111.66908      4282.9045      12739.539      17022.443      7.6562401    
    142100   294.34519      2125.8027      104.16743      4300.9193      12926.544      17227.464      7.470946     
    142200   291.27218      2113.859       115.33986      4266.6757      12791.589      17058.265      7.830332     
    142300   298.22619      2085.8371      125.63514      4260.6737      13096.983      17357.657      8.144158     
    142400   293.85624      2044.3716      105.04678      4180.3959      12905.071      17085.467      7.3426026    
    142500   296.99977      2056.485       110.80081      4219.4774      13043.123      17262.601      7.4650035    
    142600   292.15276      2077.5975      109.84697      4221.0834      12830.261      17051.344      7.0050771    
    142700   293.69693      2124.0829      123.69613      4278.0209      12898.075      17176.096      7.6867694    
    142800   292.5504       2167.3185      103.60987      4297.3814      12847.724      17145.105      7.3816927    
    142900   290.55404      2165.5509      106.75035      4288.9207      12760.051      17048.972      7.7882857    
    143000   292.56974      2165.0574      112.45538      4329.7421      12848.573      17178.315      8.0319545    
    143100   291.864        2142.7649      116.72727      4311.9115      12817.58       17129.491      7.6642927    
    143200   292.6099       2130.2385      119.54988      4321.3633      12850.337      17171.7        7.5844495    
    143300   293.59034      2110.6633      102.92078      4316.0684      12893.394      17209.462      7.2435299    
    143400   291.1232       2060.5753      120.09373      4301.7166      12785.046      17086.763      7.5521276    
    143500   294.48273      2056.9025      102.1047       4283.5493      12932.584      17216.134      6.8437328    
    143600   288.85731      2053.1185      115.49026      4247.484       12685.537      16933.021      6.994139     
    143700   292.83154      2086.691       110.39895      4298.3886      12860.07       17158.459      7.053339     
    143800   292.1765       2108.2824      103.27758      4293.1985      12831.303      17124.502      7.1012654    
    143900   290.25514      2098.7002      122.0887       4264.3012      12746.924      17011.225      7.275867     
    144000   295.28848      2096.3326      108.88548      4276.3849      12967.97       17244.355      6.6093215    
    144100   291.74984      2073.8337      100.45741      4225.2343      12812.566      17037.8        6.0473412    
    144200   293.89017      2086.3686      115.40721      4216.7815      12906.561      17123.343      6.1653127    
    144300   293.31496      2111.8774      102.00273      4228.3081      12881.3        17109.608      6.2225437    
    144400   294.9841       2089.5931      114.96096      4216.8888      12954.603      17171.491      6.8045416    
    144500   292.26819      2100.0599      101.18188      4193.308       12835.33       17028.638      6.8029558    
    144600   295.90861      2126.4507      109.32812      4254.1892      12995.204      17249.393      6.9995172    
    144700   293.18654      2110.0515      101.79999      4233.1834      12875.661      17108.844      7.4667689    
    144800   293.15566      2125.0655      94.570137      4245.7254      12874.304      17120.03       7.1116983    
    144900   293.36706      2132.3532      109.91149      4284.5621      12883.588      17168.151      7.8158207    
    145000   291.9474       2112.7637      94.123225      4255.3686      12821.242      17076.611      7.7340304    
    145100   294.82011      2102.5792      128.94146      4301.9116      12947.401      17249.312      8.0414775    
    145200   290.59245      2100.5145      104.4955       4248.2341      12761.738      17009.972      7.5995517    
    145300   292.95076      2106.192       111.01389      4269.1627      12865.306      17134.469      8.2373622    
    145400   292.30533      2092.9164      122.654        4296.1917      12836.961      17133.153      8.3664529    
    145500   288.65445      2074.0741      117.27449      4241.9531      12676.628      16918.581      7.8727923    
    145600   294.40425      2120.1159      111.92822      4286.0883      12929.138      17215.226      7.6469239    
    145700   291.59493      2120.8646      103.27586      4279.5086      12805.763      17085.272      7.0387099    
    145800   293.48614      2144.7515      108.46238      4284.4915      12888.818      17173.309      6.9991454    
    145900   294.80962      2148.0377      105.77932      4259.5084      12946.94       17206.449      6.9227293    
    146000   292.24772      2128.7273      110.71535      4234.19        12834.431      17068.621      6.8699696    
    146100   296.80644      2160.2861      108.44935      4288.4239      13034.633      17323.057      7.4398735    
    146200   291.75062      2114.4466      107.2775       4227.6422      12812.6        17040.243      7.5402405    
    146300   293.59908      2130.7469      112.0447       4257.6084      12893.778      17151.386      7.8092724    
    146400   293.216        2130.8936      105.8309       4260.689       12876.954      17137.643      7.8584117    
    146500   290.69051      2139.26        108.05182      4253.5057      12766.044      17019.55       8.1032955    
    146600   293.34738      2150.9292      126.53291      4294.495       12882.724      17177.219      8.4529539    
    146700   291.58157      2126.975       112.14975      4269.9212      12805.176      17075.098      8.1641802    
    146800   295.73365      2127.7649      112.82227      4310.4337      12987.52       17297.954      8.16273      
    146900   292.35058      2090.5215      101.53514      4257.9183      12838.949      17096.867      7.4774116    
    147000   294.39472      2085.3284      84.748892      4228.2166      12928.719      17156.936      7.1495337    
    147100   295.94613      2116.5287      100.41894      4311.765       12996.852      17308.617      7.2006516    
    147200   290.26001      2108.0663      109.00079      4301.4871      12747.138      17048.625      7.3335418    
    147300   294.81117      2111.5251      104.09814      4323.2022      12947.008      17270.211      7.2390164    
    147400   293.5058       2077.1991      120.84454      4266.4389      12889.681      17156.12       7.8323493    
    147500   287.92818      2047.4985      95.095121      4165.955       12644.733      16810.688      7.266972     
    147600   295.51048      2076.1698      115.07208      4250.6117      12977.719      17228.331      7.1605995    
    147700   293.03653      2073.5341      101.29109      4263.553       12869.073      17132.626      7.0922333    
    147800   293.76356      2097.993       108.99548      4283.894       12901.001      17184.895      7.5285646    
    147900   294.74068      2110.1203      125.31588      4300.4494      12943.913      17244.362      7.8030693    
    148000   293.09125      2100.0839      107.38833      4272.9965      12871.476      17144.472      7.5654875    
    148100   294.10168      2082.6515      107.47255      4247.0791      12915.85       17162.929      7.7509508    
    148200   294.07202      2056.8132      110.48257      4222.0218      12914.548      17136.57       7.6897297    
    148300   291.83774      2051.4119      88.081976      4205.9756      12816.426      17022.402      7.1914724    
    148400   294.38748      2108.0977      135.75335      4335.7961      12928.402      17264.198      8.5382567    
    148500   291.40561      2115.0533      119.53754      4287.3305      12797.449      17084.779      7.9850765    
    148600   292.36616      2142.3923      99.19172       4298.0639      12839.633      17137.696      7.5724245    
    148700   295.52645      2160.8403      95.08335       4327.5499      12978.421      17305.971      7.9769865    
    148800   290.15402      2142.4956      103.68562      4302.5364      12742.484      17045.02       8.2892425    
    148900   294.31716      2146.827       86.911182      4323.873       12925.313      17249.186      7.8304282    
    149000   288.53106      2094.3324      111.1561       4270.3199      12671.209      16941.529      8.0247646    
    149100   293.32264      2104.0299      122.27361      4300.0556      12881.638      17181.693      8.3870007    
    149200   291.10525      2084.3915      100.04123      4286.5563      12784.258      17070.815      8.1722613    
    149300   290.80924      2062.1158      107.0395       4245.7827      12771.258      17017.041      7.8161924    
    149400   295.16877      2061.459       125.36052      4261.7682      12962.713      17224.481      8.154178     
    149500   291.42561      2055.6027      107.97427      4208.1341      12798.327      17006.461      7.6851971    
    149600   295.91594      2102.9737      131.26663      4324.508       12995.526      17320.034      8.2044811    
    149700   291.61108      2097.0802      127.06567      4314.0303      12806.472      17120.502      7.8281032    
    149800   292.66515      2124.4211      103.51258      4321.6392      12852.763      17174.402      7.2458138    
    149900   294.1563       2137.3516      111.42072      4335.8728      12918.249      17254.121      7.8186253    
    150000   292.5227       2104.3629      103.03935      4275.4745      12846.507      17121.982      7.6232934    
    150100   293.0731       2111.4866      131.13734      4336.7974      12870.679      17207.476      8.1981171    
    150200   290.11756      2103.844       92.076845      4254.4183      12740.883      16995.301      7.2331718    
    150300   294.81014      2090.2987      108.15014      4281.9987      12946.963      17228.962      7.8047182    
    150400   293.60078      2066.914       108.38587      4244.0563      12893.853      17137.909      7.8494221    
    150500   293.98693      2080.1022      120.46857      4275.2467      12910.811      17186.057      8.0639065    
    150600   294.93321      2120.352       100.17915      4294.4854      12952.368      17246.853      7.6344878    
    150700   291.97654      2124.4889      100.52805      4305.299       12822.522      17127.821      7.5559012    
    150800   296.15515      2150.4636      108.29306      4356.6211      13006.031      17362.652      7.7234656    
    150900   290.79908      2128.2801      110.45582      4334.3947      12770.812      17105.207      8.2011268    
    151000   293.59306      2107.3059      98.172016      4302.8031      12893.513      17196.317      8.0486355    
    151100   291.77809      2088.3767      110.45259      4283.0191      12813.807      17096.826      8.0304801    
    151200   291.54155      2081.2805      113.22533      4282.8313      12803.419      17086.25       7.7024924    
    151300   293.7445       2089.1116      116.43473      4288.1292      12900.164      17188.293      7.5937028    
    151400   291.4434       2059.9129      104.665        4225.7207      12799.108      17024.829      7.127014     
    151500   293.63904      2083.8506      99.035999      4266.5161      12895.533      17162.049      6.9670602    
    151600   293.47181      2101.3683      103.88674      4263.2117      12888.188      17151.4        6.7061575    
    151700   292.57575      2066.8053      110.7392       4215.1759      12848.837      17064.013      7.4783522    
    151800   295.46361      2079.2701      126.27504      4283.0766      12975.661      17258.737      7.7295293    
    151900   292.62833      2054.2615      112.10174      4223.1699      12851.146      17074.316      7.2060225    
    152000   294.44874      2056.8867      111.90505      4246.0794      12931.091      17177.171      7.1808456    
    152100   291.43523      2076.8454      100.81685      4255.7888      12798.75       17054.538      6.6494864    
    152101   291.13366      2091.4368      102.10552      4267.6127      12785.506      17053.119      6.7164104    
Loop time of 154.458 on 1 procs for 150000 steps with 14734 atoms

Performance: 167.813 ns/day, 0.143 hours/ns, 971.139 timesteps/s, 14.309 Matom-step/s
96.1% CPU use with 1 MPI tasks x 1 OpenMP threads

MPI task timing breakdown:
Section |  min time  |  avg time  |  max time  |%varavg| %total
---------------------------------------------------------------
Pair    | 7.0526     | 7.0526     | 7.0526     |   0.0 |  4.57
Bond    | 20.671     | 20.671     | 20.671     |   0.0 | 13.38
Neigh   | 28.688     | 28.688     | 28.688     |   0.0 | 18.57
Comm    | 3.3352     | 3.3352     | 3.3352     |   0.0 |  2.16
Output  | 75.157     | 75.157     | 75.157     |   0.0 | 48.66
Modify  | 16.869     | 16.869     | 16.869     |   0.0 | 10.92
Other   |            | 2.685      |            |       |  1.74

Nlocal:          14734 ave       14734 max       14734 min
Histogram: 1 0 0 0 0 0 0 0 0 0
Nghost:           2919 ave        2919 max        2919 min
Histogram: 1 0 0 0 0 0 0 0 0 0
Neighs:           4434 ave        4434 max        4434 min
Histogram: 1 0 0 0 0 0 0 0 0 0

Total # of neighbors = 4434
Ave neighs/atom = 0.30093661
Ave special neighs/atom = 1.4570381
Neighbor list builds = 20747
Dangerous builds = 0
unfix     cg_run2
Total wall time: 0:02:39
